*HEADING
cubit(entify/lib/Axisymmetric Indentation/true_mesh_coarse5.inp): 05/12/2024: 14
version: 2023.4
**
********************************** P A R T S **********************************
*PART, NAME=Part-Default
**
********************************** N O D E S **********************************
*NODE, NSET=ALLNODES
       1,    0.000000e+00,    0.000000e+00,    3.500000e+01
       2,    0.000000e+00,    1.866667e+01,    3.500000e+01
       3,    0.000000e+00,    1.633333e+01,    3.500000e+01
       4,    0.000000e+00,    1.400000e+01,    3.500000e+01
       5,    0.000000e+00,    1.166667e+01,    3.500000e+01
       6,    0.000000e+00,    9.333333e+00,    3.500000e+01
       7,    0.000000e+00,    7.000000e+00,    3.500000e+01
       8,    0.000000e+00,    4.666667e+00,    3.500000e+01
       9,    0.000000e+00,    2.333333e+00,    3.500000e+01
      10,    2.333333e+00,    0.000000e+00,    3.500000e+01
      11,    4.666667e+00,    0.000000e+00,    3.500000e+01
      12,    7.000000e+00,    0.000000e+00,    3.500000e+01
      13,    9.333333e+00,    0.000000e+00,    3.500000e+01
      14,    1.166667e+01,    0.000000e+00,    3.500000e+01
      15,    1.400000e+01,    0.000000e+00,    3.500000e+01
      16,    1.633333e+01,    0.000000e+00,    3.500000e+01
      17,    1.866667e+01,    0.000000e+00,    3.500000e+01
      18,    1.866667e+01,    2.333333e+00,    3.500000e+01
      19,    1.866667e+01,    4.666667e+00,    3.500000e+01
      20,    1.866667e+01,    7.000000e+00,    3.500000e+01
      21,    1.866667e+01,    9.333333e+00,    3.500000e+01
      22,    1.866667e+01,    1.166667e+01,    3.500000e+01
      23,    1.866667e+01,    1.400000e+01,    3.500000e+01
      24,    1.866667e+01,    1.633333e+01,    3.500000e+01
      25,    1.866667e+01,    1.866667e+01,    3.500000e+01
      26,    1.633333e+01,    2.333333e+00,    3.500000e+01
      27,    1.633333e+01,    4.666667e+00,    3.500000e+01
      28,    1.633333e+01,    7.000000e+00,    3.500000e+01
      29,    1.633333e+01,    9.333333e+00,    3.500000e+01
      30,    1.633333e+01,    1.166667e+01,    3.500000e+01
      31,    1.633333e+01,    1.400000e+01,    3.500000e+01
      32,    1.633333e+01,    1.633333e+01,    3.500000e+01
      33,    1.633333e+01,    1.866667e+01,    3.500000e+01
      34,    1.400000e+01,    2.333333e+00,    3.500000e+01
      35,    1.400000e+01,    4.666667e+00,    3.500000e+01
      36,    1.400000e+01,    7.000000e+00,    3.500000e+01
      37,    1.400000e+01,    9.333333e+00,    3.500000e+01
      38,    1.400000e+01,    1.166667e+01,    3.500000e+01
      39,    1.400000e+01,    1.400000e+01,    3.500000e+01
      40,    1.400000e+01,    1.633333e+01,    3.500000e+01
      41,    1.400000e+01,    1.866667e+01,    3.500000e+01
      42,    1.166667e+01,    2.333333e+00,    3.500000e+01
      43,    1.166667e+01,    4.666667e+00,    3.500000e+01
      44,    1.166667e+01,    7.000000e+00,    3.500000e+01
      45,    1.166667e+01,    9.333333e+00,    3.500000e+01
      46,    1.166667e+01,    1.166667e+01,    3.500000e+01
      47,    1.166667e+01,    1.400000e+01,    3.500000e+01
      48,    1.166667e+01,    1.633333e+01,    3.500000e+01
      49,    1.166667e+01,    1.866667e+01,    3.500000e+01
      50,    9.333333e+00,    2.333333e+00,    3.500000e+01
      51,    9.333333e+00,    4.666667e+00,    3.500000e+01
      52,    9.333333e+00,    7.000000e+00,    3.500000e+01
      53,    9.333333e+00,    9.333333e+00,    3.500000e+01
      54,    9.333333e+00,    1.166667e+01,    3.500000e+01
      55,    9.333333e+00,    1.400000e+01,    3.500000e+01
      56,    9.333333e+00,    1.633333e+01,    3.500000e+01
      57,    9.333333e+00,    1.866667e+01,    3.500000e+01
      58,    7.000000e+00,    2.333333e+00,    3.500000e+01
      59,    7.000000e+00,    4.666667e+00,    3.500000e+01
      60,    7.000000e+00,    7.000000e+00,    3.500000e+01
      61,    7.000000e+00,    9.333333e+00,    3.500000e+01
      62,    7.000000e+00,    1.166667e+01,    3.500000e+01
      63,    7.000000e+00,    1.400000e+01,    3.500000e+01
      64,    7.000000e+00,    1.633333e+01,    3.500000e+01
      65,    7.000000e+00,    1.866667e+01,    3.500000e+01
      66,    4.666667e+00,    2.333333e+00,    3.500000e+01
      67,    4.666667e+00,    4.666667e+00,    3.500000e+01
      68,    4.666667e+00,    7.000000e+00,    3.500000e+01
      69,    4.666667e+00,    9.333333e+00,    3.500000e+01
      70,    4.666667e+00,    1.166667e+01,    3.500000e+01
      71,    4.666667e+00,    1.400000e+01,    3.500000e+01
      72,    4.666667e+00,    1.633333e+01,    3.500000e+01
      73,    4.666667e+00,    1.866667e+01,    3.500000e+01
      74,    2.333333e+00,    2.333333e+00,    3.500000e+01
      75,    2.333333e+00,    4.666667e+00,    3.500000e+01
      76,    2.333333e+00,    7.000000e+00,    3.500000e+01
      77,    2.333333e+00,    9.333333e+00,    3.500000e+01
      78,    2.333333e+00,    1.166667e+01,    3.500000e+01
      79,    2.333333e+00,    1.400000e+01,    3.500000e+01
      80,    2.333333e+00,    1.633333e+01,    3.500000e+01
      81,    2.333333e+00,    1.866667e+01,    3.500000e+01
      82,    0.000000e+00,    0.000000e+00,    3.266667e+01
      83,    0.000000e+00,    0.000000e+00,    3.033333e+01
      84,    0.000000e+00,    0.000000e+00,    2.800000e+01
      85,    0.000000e+00,    0.000000e+00,    2.566667e+01
      86,    0.000000e+00,    0.000000e+00,    2.333333e+01
      87,    0.000000e+00,    0.000000e+00,    2.100000e+01
      88,    0.000000e+00,    0.000000e+00,    1.866667e+01
      89,    0.000000e+00,    0.000000e+00,    1.633333e+01
      90,    2.333333e+00,    0.000000e+00,    3.266667e+01
      91,    2.333333e+00,    0.000000e+00,    3.033333e+01
      92,    2.333333e+00,    0.000000e+00,    2.800000e+01
      93,    2.333333e+00,    0.000000e+00,    2.566667e+01
      94,    2.333333e+00,    0.000000e+00,    2.333333e+01
      95,    2.333333e+00,    0.000000e+00,    2.100000e+01
      96,    2.333333e+00,    0.000000e+00,    1.866667e+01
      97,    2.333333e+00,    0.000000e+00,    1.633333e+01
      98,    4.666667e+00,    0.000000e+00,    3.266667e+01
      99,    4.666667e+00,    0.000000e+00,    3.033333e+01
     100,    4.666667e+00,    0.000000e+00,    2.800000e+01
     101,    4.666667e+00,    0.000000e+00,    2.566667e+01
     102,    4.666667e+00,    0.000000e+00,    2.333333e+01
     103,    4.666667e+00,    0.000000e+00,    2.100000e+01
     104,    4.666667e+00,    0.000000e+00,    1.866667e+01
     105,    4.666667e+00,    0.000000e+00,    1.633333e+01
     106,    7.000000e+00,    0.000000e+00,    3.266667e+01
     107,    7.000000e+00,    0.000000e+00,    3.033333e+01
     108,    7.000000e+00,    0.000000e+00,    2.800000e+01
     109,    7.000000e+00,    0.000000e+00,    2.566667e+01
     110,    7.000000e+00,    0.000000e+00,    2.333333e+01
     111,    7.000000e+00,    0.000000e+00,    2.100000e+01
     112,    7.000000e+00,    0.000000e+00,    1.866667e+01
     113,    7.000000e+00,    0.000000e+00,    1.633333e+01
     114,    9.333333e+00,    0.000000e+00,    3.266667e+01
     115,    9.333333e+00,    0.000000e+00,    3.033333e+01
     116,    9.333333e+00,    0.000000e+00,    2.800000e+01
     117,    9.333333e+00,    0.000000e+00,    2.566667e+01
     118,    9.333333e+00,    0.000000e+00,    2.333333e+01
     119,    9.333333e+00,    0.000000e+00,    2.100000e+01
     120,    9.333333e+00,    0.000000e+00,    1.866667e+01
     121,    9.333333e+00,    0.000000e+00,    1.633333e+01
     122,    1.166667e+01,    0.000000e+00,    3.266667e+01
     123,    1.166667e+01,    0.000000e+00,    3.033333e+01
     124,    1.166667e+01,    0.000000e+00,    2.800000e+01
     125,    1.166667e+01,    0.000000e+00,    2.566667e+01
     126,    1.166667e+01,    0.000000e+00,    2.333333e+01
     127,    1.166667e+01,    0.000000e+00,    2.100000e+01
     128,    1.166667e+01,    0.000000e+00,    1.866667e+01
     129,    1.166667e+01,    0.000000e+00,    1.633333e+01
     130,    1.400000e+01,    0.000000e+00,    3.266667e+01
     131,    1.400000e+01,    0.000000e+00,    3.033333e+01
     132,    1.400000e+01,    0.000000e+00,    2.800000e+01
     133,    1.400000e+01,    0.000000e+00,    2.566667e+01
     134,    1.400000e+01,    0.000000e+00,    2.333333e+01
     135,    1.400000e+01,    0.000000e+00,    2.100000e+01
     136,    1.400000e+01,    0.000000e+00,    1.866667e+01
     137,    1.400000e+01,    0.000000e+00,    1.633333e+01
     138,    1.633333e+01,    0.000000e+00,    3.266667e+01
     139,    1.633333e+01,    0.000000e+00,    3.033333e+01
     140,    1.633333e+01,    0.000000e+00,    2.800000e+01
     141,    1.633333e+01,    0.000000e+00,    2.566667e+01
     142,    1.633333e+01,    0.000000e+00,    2.333333e+01
     143,    1.633333e+01,    0.000000e+00,    2.100000e+01
     144,    1.633333e+01,    0.000000e+00,    1.866667e+01
     145,    1.633333e+01,    0.000000e+00,    1.633333e+01
     146,    1.866667e+01,    0.000000e+00,    3.266667e+01
     147,    1.866667e+01,    0.000000e+00,    3.033333e+01
     148,    1.866667e+01,    0.000000e+00,    2.800000e+01
     149,    1.866667e+01,    0.000000e+00,    2.566667e+01
     150,    1.866667e+01,    0.000000e+00,    2.333333e+01
     151,    1.866667e+01,    0.000000e+00,    2.100000e+01
     152,    1.866667e+01,    0.000000e+00,    1.866667e+01
     153,    1.866667e+01,    0.000000e+00,    1.633333e+01
     154,    0.000000e+00,    1.866667e+01,    3.266667e+01
     155,    0.000000e+00,    1.866667e+01,    3.033333e+01
     156,    0.000000e+00,    1.866667e+01,    2.800000e+01
     157,    0.000000e+00,    1.866667e+01,    2.566667e+01
     158,    0.000000e+00,    1.866667e+01,    2.333333e+01
     159,    0.000000e+00,    1.866667e+01,    2.100000e+01
     160,    0.000000e+00,    1.866667e+01,    1.866667e+01
     161,    0.000000e+00,    1.866667e+01,    1.633333e+01
     162,    0.000000e+00,    1.633333e+01,    3.266667e+01
     163,    0.000000e+00,    1.633333e+01,    3.033333e+01
     164,    0.000000e+00,    1.633333e+01,    2.800000e+01
     165,    0.000000e+00,    1.633333e+01,    2.566667e+01
     166,    0.000000e+00,    1.633333e+01,    2.333333e+01
     167,    0.000000e+00,    1.633333e+01,    2.100000e+01
     168,    0.000000e+00,    1.633333e+01,    1.866667e+01
     169,    0.000000e+00,    1.633333e+01,    1.633333e+01
     170,    0.000000e+00,    1.400000e+01,    3.266667e+01
     171,    0.000000e+00,    1.400000e+01,    3.033333e+01
     172,    0.000000e+00,    1.400000e+01,    2.800000e+01
     173,    0.000000e+00,    1.400000e+01,    2.566667e+01
     174,    0.000000e+00,    1.400000e+01,    2.333333e+01
     175,    0.000000e+00,    1.400000e+01,    2.100000e+01
     176,    0.000000e+00,    1.400000e+01,    1.866667e+01
     177,    0.000000e+00,    1.400000e+01,    1.633333e+01
     178,    0.000000e+00,    1.166667e+01,    3.266667e+01
     179,    0.000000e+00,    1.166667e+01,    3.033333e+01
     180,    0.000000e+00,    1.166667e+01,    2.800000e+01
     181,    0.000000e+00,    1.166667e+01,    2.566667e+01
     182,    0.000000e+00,    1.166667e+01,    2.333333e+01
     183,    0.000000e+00,    1.166667e+01,    2.100000e+01
     184,    0.000000e+00,    1.166667e+01,    1.866667e+01
     185,    0.000000e+00,    1.166667e+01,    1.633333e+01
     186,    0.000000e+00,    9.333333e+00,    3.266667e+01
     187,    0.000000e+00,    9.333333e+00,    3.033333e+01
     188,    0.000000e+00,    9.333333e+00,    2.800000e+01
     189,    0.000000e+00,    9.333333e+00,    2.566667e+01
     190,    0.000000e+00,    9.333333e+00,    2.333333e+01
     191,    0.000000e+00,    9.333333e+00,    2.100000e+01
     192,    0.000000e+00,    9.333333e+00,    1.866667e+01
     193,    0.000000e+00,    9.333333e+00,    1.633333e+01
     194,    0.000000e+00,    7.000000e+00,    3.266667e+01
     195,    0.000000e+00,    7.000000e+00,    3.033333e+01
     196,    0.000000e+00,    7.000000e+00,    2.800000e+01
     197,    0.000000e+00,    7.000000e+00,    2.566667e+01
     198,    0.000000e+00,    7.000000e+00,    2.333333e+01
     199,    0.000000e+00,    7.000000e+00,    2.100000e+01
     200,    0.000000e+00,    7.000000e+00,    1.866667e+01
     201,    0.000000e+00,    7.000000e+00,    1.633333e+01
     202,    0.000000e+00,    4.666667e+00,    3.266667e+01
     203,    0.000000e+00,    4.666667e+00,    3.033333e+01
     204,    0.000000e+00,    4.666667e+00,    2.800000e+01
     205,    0.000000e+00,    4.666667e+00,    2.566667e+01
     206,    0.000000e+00,    4.666667e+00,    2.333333e+01
     207,    0.000000e+00,    4.666667e+00,    2.100000e+01
     208,    0.000000e+00,    4.666667e+00,    1.866667e+01
     209,    0.000000e+00,    4.666667e+00,    1.633333e+01
     210,    0.000000e+00,    2.333333e+00,    3.266667e+01
     211,    0.000000e+00,    2.333333e+00,    3.033333e+01
     212,    0.000000e+00,    2.333333e+00,    2.800000e+01
     213,    0.000000e+00,    2.333333e+00,    2.566667e+01
     214,    0.000000e+00,    2.333333e+00,    2.333333e+01
     215,    0.000000e+00,    2.333333e+00,    2.100000e+01
     216,    0.000000e+00,    2.333333e+00,    1.866667e+01
     217,    0.000000e+00,    2.333333e+00,    1.633333e+01
     218,    2.333333e+00,    2.333333e+00,    3.266667e+01
     219,    2.333333e+00,    2.333333e+00,    3.033333e+01
     220,    2.333333e+00,    2.333333e+00,    2.800000e+01
     221,    2.333333e+00,    2.333333e+00,    2.566667e+01
     222,    2.333333e+00,    2.333333e+00,    2.333333e+01
     223,    2.333333e+00,    2.333333e+00,    2.100000e+01
     224,    2.333333e+00,    2.333333e+00,    1.866667e+01
     225,    2.333333e+00,    2.333333e+00,    1.633333e+01
     226,    2.333333e+00,    4.666667e+00,    3.266667e+01
     227,    2.333333e+00,    4.666667e+00,    3.033333e+01
     228,    2.333333e+00,    4.666667e+00,    2.800000e+01
     229,    2.333333e+00,    4.666667e+00,    2.566667e+01
     230,    2.333333e+00,    4.666667e+00,    2.333333e+01
     231,    2.333333e+00,    4.666667e+00,    2.100000e+01
     232,    2.333333e+00,    4.666667e+00,    1.866667e+01
     233,    2.333333e+00,    4.666667e+00,    1.633333e+01
     234,    2.333333e+00,    7.000000e+00,    3.266667e+01
     235,    2.333333e+00,    7.000000e+00,    3.033333e+01
     236,    2.333333e+00,    7.000000e+00,    2.800000e+01
     237,    2.333333e+00,    7.000000e+00,    2.566667e+01
     238,    2.333333e+00,    7.000000e+00,    2.333333e+01
     239,    2.333333e+00,    7.000000e+00,    2.100000e+01
     240,    2.333333e+00,    7.000000e+00,    1.866667e+01
     241,    2.333333e+00,    7.000000e+00,    1.633333e+01
     242,    2.333333e+00,    9.333333e+00,    3.266667e+01
     243,    2.333333e+00,    9.333333e+00,    3.033333e+01
     244,    2.333333e+00,    9.333333e+00,    2.800000e+01
     245,    2.333333e+00,    9.333333e+00,    2.566667e+01
     246,    2.333333e+00,    9.333333e+00,    2.333333e+01
     247,    2.333333e+00,    9.333333e+00,    2.100000e+01
     248,    2.333333e+00,    9.333333e+00,    1.866667e+01
     249,    2.333333e+00,    9.333333e+00,    1.633333e+01
     250,    2.333333e+00,    1.166667e+01,    3.266667e+01
     251,    2.333333e+00,    1.166667e+01,    3.033333e+01
     252,    2.333333e+00,    1.166667e+01,    2.800000e+01
     253,    2.333333e+00,    1.166667e+01,    2.566667e+01
     254,    2.333333e+00,    1.166667e+01,    2.333333e+01
     255,    2.333333e+00,    1.166667e+01,    2.100000e+01
     256,    2.333333e+00,    1.166667e+01,    1.866667e+01
     257,    2.333333e+00,    1.166667e+01,    1.633333e+01
     258,    2.333333e+00,    1.400000e+01,    3.266667e+01
     259,    2.333333e+00,    1.400000e+01,    3.033333e+01
     260,    2.333333e+00,    1.400000e+01,    2.800000e+01
     261,    2.333333e+00,    1.400000e+01,    2.566667e+01
     262,    2.333333e+00,    1.400000e+01,    2.333333e+01
     263,    2.333333e+00,    1.400000e+01,    2.100000e+01
     264,    2.333333e+00,    1.400000e+01,    1.866667e+01
     265,    2.333333e+00,    1.400000e+01,    1.633333e+01
     266,    2.333333e+00,    1.633333e+01,    3.266667e+01
     267,    2.333333e+00,    1.633333e+01,    3.033333e+01
     268,    2.333333e+00,    1.633333e+01,    2.800000e+01
     269,    2.333333e+00,    1.633333e+01,    2.566667e+01
     270,    2.333333e+00,    1.633333e+01,    2.333333e+01
     271,    2.333333e+00,    1.633333e+01,    2.100000e+01
     272,    2.333333e+00,    1.633333e+01,    1.866667e+01
     273,    2.333333e+00,    1.633333e+01,    1.633333e+01
     274,    2.333333e+00,    1.866667e+01,    3.266667e+01
     275,    2.333333e+00,    1.866667e+01,    3.033333e+01
     276,    2.333333e+00,    1.866667e+01,    2.800000e+01
     277,    2.333333e+00,    1.866667e+01,    2.566667e+01
     278,    2.333333e+00,    1.866667e+01,    2.333333e+01
     279,    2.333333e+00,    1.866667e+01,    2.100000e+01
     280,    2.333333e+00,    1.866667e+01,    1.866667e+01
     281,    2.333333e+00,    1.866667e+01,    1.633333e+01
     282,    4.666667e+00,    2.333333e+00,    3.266667e+01
     283,    4.666667e+00,    2.333333e+00,    3.033333e+01
     284,    4.666667e+00,    2.333333e+00,    2.800000e+01
     285,    4.666667e+00,    2.333333e+00,    2.566667e+01
     286,    4.666667e+00,    2.333333e+00,    2.333333e+01
     287,    4.666667e+00,    2.333333e+00,    2.100000e+01
     288,    4.666667e+00,    2.333333e+00,    1.866667e+01
     289,    4.666667e+00,    2.333333e+00,    1.633333e+01
     290,    4.666667e+00,    4.666667e+00,    3.266667e+01
     291,    4.666667e+00,    4.666667e+00,    3.033333e+01
     292,    4.666667e+00,    4.666667e+00,    2.800000e+01
     293,    4.666667e+00,    4.666667e+00,    2.566667e+01
     294,    4.666667e+00,    4.666667e+00,    2.333333e+01
     295,    4.666667e+00,    4.666667e+00,    2.100000e+01
     296,    4.666667e+00,    4.666667e+00,    1.866667e+01
     297,    4.666667e+00,    4.666667e+00,    1.633333e+01
     298,    4.666667e+00,    7.000000e+00,    3.266667e+01
     299,    4.666667e+00,    7.000000e+00,    3.033333e+01
     300,    4.666667e+00,    7.000000e+00,    2.800000e+01
     301,    4.666667e+00,    7.000000e+00,    2.566667e+01
     302,    4.666667e+00,    7.000000e+00,    2.333333e+01
     303,    4.666667e+00,    7.000000e+00,    2.100000e+01
     304,    4.666667e+00,    7.000000e+00,    1.866667e+01
     305,    4.666667e+00,    7.000000e+00,    1.633333e+01
     306,    4.666667e+00,    9.333333e+00,    3.266667e+01
     307,    4.666667e+00,    9.333333e+00,    3.033333e+01
     308,    4.666667e+00,    9.333333e+00,    2.800000e+01
     309,    4.666667e+00,    9.333333e+00,    2.566667e+01
     310,    4.666667e+00,    9.333333e+00,    2.333333e+01
     311,    4.666667e+00,    9.333333e+00,    2.100000e+01
     312,    4.666667e+00,    9.333333e+00,    1.866667e+01
     313,    4.666667e+00,    9.333333e+00,    1.633333e+01
     314,    4.666667e+00,    1.166667e+01,    3.266667e+01
     315,    4.666667e+00,    1.166667e+01,    3.033333e+01
     316,    4.666667e+00,    1.166667e+01,    2.800000e+01
     317,    4.666667e+00,    1.166667e+01,    2.566667e+01
     318,    4.666667e+00,    1.166667e+01,    2.333333e+01
     319,    4.666667e+00,    1.166667e+01,    2.100000e+01
     320,    4.666667e+00,    1.166667e+01,    1.866667e+01
     321,    4.666667e+00,    1.166667e+01,    1.633333e+01
     322,    4.666667e+00,    1.400000e+01,    3.266667e+01
     323,    4.666667e+00,    1.400000e+01,    3.033333e+01
     324,    4.666667e+00,    1.400000e+01,    2.800000e+01
     325,    4.666667e+00,    1.400000e+01,    2.566667e+01
     326,    4.666667e+00,    1.400000e+01,    2.333333e+01
     327,    4.666667e+00,    1.400000e+01,    2.100000e+01
     328,    4.666667e+00,    1.400000e+01,    1.866667e+01
     329,    4.666667e+00,    1.400000e+01,    1.633333e+01
     330,    4.666667e+00,    1.633333e+01,    3.266667e+01
     331,    4.666667e+00,    1.633333e+01,    3.033333e+01
     332,    4.666667e+00,    1.633333e+01,    2.800000e+01
     333,    4.666667e+00,    1.633333e+01,    2.566667e+01
     334,    4.666667e+00,    1.633333e+01,    2.333333e+01
     335,    4.666667e+00,    1.633333e+01,    2.100000e+01
     336,    4.666667e+00,    1.633333e+01,    1.866667e+01
     337,    4.666667e+00,    1.633333e+01,    1.633333e+01
     338,    4.666667e+00,    1.866667e+01,    3.266667e+01
     339,    4.666667e+00,    1.866667e+01,    3.033333e+01
     340,    4.666667e+00,    1.866667e+01,    2.800000e+01
     341,    4.666667e+00,    1.866667e+01,    2.566667e+01
     342,    4.666667e+00,    1.866667e+01,    2.333333e+01
     343,    4.666667e+00,    1.866667e+01,    2.100000e+01
     344,    4.666667e+00,    1.866667e+01,    1.866667e+01
     345,    4.666667e+00,    1.866667e+01,    1.633333e+01
     346,    7.000000e+00,    2.333333e+00,    3.266667e+01
     347,    7.000000e+00,    2.333333e+00,    3.033333e+01
     348,    7.000000e+00,    2.333333e+00,    2.800000e+01
     349,    7.000000e+00,    2.333333e+00,    2.566667e+01
     350,    7.000000e+00,    2.333333e+00,    2.333333e+01
     351,    7.000000e+00,    2.333333e+00,    2.100000e+01
     352,    7.000000e+00,    2.333333e+00,    1.866667e+01
     353,    7.000000e+00,    2.333333e+00,    1.633333e+01
     354,    7.000000e+00,    4.666667e+00,    3.266667e+01
     355,    7.000000e+00,    4.666667e+00,    3.033333e+01
     356,    7.000000e+00,    4.666667e+00,    2.800000e+01
     357,    7.000000e+00,    4.666667e+00,    2.566667e+01
     358,    7.000000e+00,    4.666667e+00,    2.333333e+01
     359,    7.000000e+00,    4.666667e+00,    2.100000e+01
     360,    7.000000e+00,    4.666667e+00,    1.866667e+01
     361,    7.000000e+00,    4.666667e+00,    1.633333e+01
     362,    7.000000e+00,    7.000000e+00,    3.266667e+01
     363,    7.000000e+00,    7.000000e+00,    3.033333e+01
     364,    7.000000e+00,    7.000000e+00,    2.800000e+01
     365,    7.000000e+00,    7.000000e+00,    2.566667e+01
     366,    7.000000e+00,    7.000000e+00,    2.333333e+01
     367,    7.000000e+00,    7.000000e+00,    2.100000e+01
     368,    7.000000e+00,    7.000000e+00,    1.866667e+01
     369,    7.000000e+00,    7.000000e+00,    1.633333e+01
     370,    7.000000e+00,    9.333333e+00,    3.266667e+01
     371,    7.000000e+00,    9.333333e+00,    3.033333e+01
     372,    7.000000e+00,    9.333333e+00,    2.800000e+01
     373,    7.000000e+00,    9.333333e+00,    2.566667e+01
     374,    7.000000e+00,    9.333333e+00,    2.333333e+01
     375,    7.000000e+00,    9.333333e+00,    2.100000e+01
     376,    7.000000e+00,    9.333333e+00,    1.866667e+01
     377,    7.000000e+00,    9.333333e+00,    1.633333e+01
     378,    7.000000e+00,    1.166667e+01,    3.266667e+01
     379,    7.000000e+00,    1.166667e+01,    3.033333e+01
     380,    7.000000e+00,    1.166667e+01,    2.800000e+01
     381,    7.000000e+00,    1.166667e+01,    2.566667e+01
     382,    7.000000e+00,    1.166667e+01,    2.333333e+01
     383,    7.000000e+00,    1.166667e+01,    2.100000e+01
     384,    7.000000e+00,    1.166667e+01,    1.866667e+01
     385,    7.000000e+00,    1.166667e+01,    1.633333e+01
     386,    7.000000e+00,    1.400000e+01,    3.266667e+01
     387,    7.000000e+00,    1.400000e+01,    3.033333e+01
     388,    7.000000e+00,    1.400000e+01,    2.800000e+01
     389,    7.000000e+00,    1.400000e+01,    2.566667e+01
     390,    7.000000e+00,    1.400000e+01,    2.333333e+01
     391,    7.000000e+00,    1.400000e+01,    2.100000e+01
     392,    7.000000e+00,    1.400000e+01,    1.866667e+01
     393,    7.000000e+00,    1.400000e+01,    1.633333e+01
     394,    7.000000e+00,    1.633333e+01,    3.266667e+01
     395,    7.000000e+00,    1.633333e+01,    3.033333e+01
     396,    7.000000e+00,    1.633333e+01,    2.800000e+01
     397,    7.000000e+00,    1.633333e+01,    2.566667e+01
     398,    7.000000e+00,    1.633333e+01,    2.333333e+01
     399,    7.000000e+00,    1.633333e+01,    2.100000e+01
     400,    7.000000e+00,    1.633333e+01,    1.866667e+01
     401,    7.000000e+00,    1.633333e+01,    1.633333e+01
     402,    7.000000e+00,    1.866667e+01,    3.266667e+01
     403,    7.000000e+00,    1.866667e+01,    3.033333e+01
     404,    7.000000e+00,    1.866667e+01,    2.800000e+01
     405,    7.000000e+00,    1.866667e+01,    2.566667e+01
     406,    7.000000e+00,    1.866667e+01,    2.333333e+01
     407,    7.000000e+00,    1.866667e+01,    2.100000e+01
     408,    7.000000e+00,    1.866667e+01,    1.866667e+01
     409,    7.000000e+00,    1.866667e+01,    1.633333e+01
     410,    9.333333e+00,    2.333333e+00,    3.266667e+01
     411,    9.333333e+00,    2.333333e+00,    3.033333e+01
     412,    9.333333e+00,    2.333333e+00,    2.800000e+01
     413,    9.333333e+00,    2.333333e+00,    2.566667e+01
     414,    9.333333e+00,    2.333333e+00,    2.333333e+01
     415,    9.333333e+00,    2.333333e+00,    2.100000e+01
     416,    9.333333e+00,    2.333333e+00,    1.866667e+01
     417,    9.333333e+00,    2.333333e+00,    1.633333e+01
     418,    9.333333e+00,    4.666667e+00,    3.266667e+01
     419,    9.333333e+00,    4.666667e+00,    3.033333e+01
     420,    9.333333e+00,    4.666667e+00,    2.800000e+01
     421,    9.333333e+00,    4.666667e+00,    2.566667e+01
     422,    9.333333e+00,    4.666667e+00,    2.333333e+01
     423,    9.333333e+00,    4.666667e+00,    2.100000e+01
     424,    9.333333e+00,    4.666667e+00,    1.866667e+01
     425,    9.333333e+00,    4.666667e+00,    1.633333e+01
     426,    9.333333e+00,    7.000000e+00,    3.266667e+01
     427,    9.333333e+00,    7.000000e+00,    3.033333e+01
     428,    9.333333e+00,    7.000000e+00,    2.800000e+01
     429,    9.333333e+00,    7.000000e+00,    2.566667e+01
     430,    9.333333e+00,    7.000000e+00,    2.333333e+01
     431,    9.333333e+00,    7.000000e+00,    2.100000e+01
     432,    9.333333e+00,    7.000000e+00,    1.866667e+01
     433,    9.333333e+00,    7.000000e+00,    1.633333e+01
     434,    9.333333e+00,    9.333333e+00,    3.266667e+01
     435,    9.333333e+00,    9.333333e+00,    3.033333e+01
     436,    9.333333e+00,    9.333333e+00,    2.800000e+01
     437,    9.333333e+00,    9.333333e+00,    2.566667e+01
     438,    9.333333e+00,    9.333333e+00,    2.333333e+01
     439,    9.333333e+00,    9.333333e+00,    2.100000e+01
     440,    9.333333e+00,    9.333333e+00,    1.866667e+01
     441,    9.333333e+00,    9.333333e+00,    1.633333e+01
     442,    9.333333e+00,    1.166667e+01,    3.266667e+01
     443,    9.333333e+00,    1.166667e+01,    3.033333e+01
     444,    9.333333e+00,    1.166667e+01,    2.800000e+01
     445,    9.333333e+00,    1.166667e+01,    2.566667e+01
     446,    9.333333e+00,    1.166667e+01,    2.333333e+01
     447,    9.333333e+00,    1.166667e+01,    2.100000e+01
     448,    9.333333e+00,    1.166667e+01,    1.866667e+01
     449,    9.333333e+00,    1.166667e+01,    1.633333e+01
     450,    9.333333e+00,    1.400000e+01,    3.266667e+01
     451,    9.333333e+00,    1.400000e+01,    3.033333e+01
     452,    9.333333e+00,    1.400000e+01,    2.800000e+01
     453,    9.333333e+00,    1.400000e+01,    2.566667e+01
     454,    9.333333e+00,    1.400000e+01,    2.333333e+01
     455,    9.333333e+00,    1.400000e+01,    2.100000e+01
     456,    9.333333e+00,    1.400000e+01,    1.866667e+01
     457,    9.333333e+00,    1.400000e+01,    1.633333e+01
     458,    9.333333e+00,    1.633333e+01,    3.266667e+01
     459,    9.333333e+00,    1.633333e+01,    3.033333e+01
     460,    9.333333e+00,    1.633333e+01,    2.800000e+01
     461,    9.333333e+00,    1.633333e+01,    2.566667e+01
     462,    9.333333e+00,    1.633333e+01,    2.333333e+01
     463,    9.333333e+00,    1.633333e+01,    2.100000e+01
     464,    9.333333e+00,    1.633333e+01,    1.866667e+01
     465,    9.333333e+00,    1.633333e+01,    1.633333e+01
     466,    9.333333e+00,    1.866667e+01,    3.266667e+01
     467,    9.333333e+00,    1.866667e+01,    3.033333e+01
     468,    9.333333e+00,    1.866667e+01,    2.800000e+01
     469,    9.333333e+00,    1.866667e+01,    2.566667e+01
     470,    9.333333e+00,    1.866667e+01,    2.333333e+01
     471,    9.333333e+00,    1.866667e+01,    2.100000e+01
     472,    9.333333e+00,    1.866667e+01,    1.866667e+01
     473,    9.333333e+00,    1.866667e+01,    1.633333e+01
     474,    1.166667e+01,    2.333333e+00,    3.266667e+01
     475,    1.166667e+01,    2.333333e+00,    3.033333e+01
     476,    1.166667e+01,    2.333333e+00,    2.800000e+01
     477,    1.166667e+01,    2.333333e+00,    2.566667e+01
     478,    1.166667e+01,    2.333333e+00,    2.333333e+01
     479,    1.166667e+01,    2.333333e+00,    2.100000e+01
     480,    1.166667e+01,    2.333333e+00,    1.866667e+01
     481,    1.166667e+01,    2.333333e+00,    1.633333e+01
     482,    1.166667e+01,    4.666667e+00,    3.266667e+01
     483,    1.166667e+01,    4.666667e+00,    3.033333e+01
     484,    1.166667e+01,    4.666667e+00,    2.800000e+01
     485,    1.166667e+01,    4.666667e+00,    2.566667e+01
     486,    1.166667e+01,    4.666667e+00,    2.333333e+01
     487,    1.166667e+01,    4.666667e+00,    2.100000e+01
     488,    1.166667e+01,    4.666667e+00,    1.866667e+01
     489,    1.166667e+01,    4.666667e+00,    1.633333e+01
     490,    1.166667e+01,    7.000000e+00,    3.266667e+01
     491,    1.166667e+01,    7.000000e+00,    3.033333e+01
     492,    1.166667e+01,    7.000000e+00,    2.800000e+01
     493,    1.166667e+01,    7.000000e+00,    2.566667e+01
     494,    1.166667e+01,    7.000000e+00,    2.333333e+01
     495,    1.166667e+01,    7.000000e+00,    2.100000e+01
     496,    1.166667e+01,    7.000000e+00,    1.866667e+01
     497,    1.166667e+01,    7.000000e+00,    1.633333e+01
     498,    1.166667e+01,    9.333333e+00,    3.266667e+01
     499,    1.166667e+01,    9.333333e+00,    3.033333e+01
     500,    1.166667e+01,    9.333333e+00,    2.800000e+01
     501,    1.166667e+01,    9.333333e+00,    2.566667e+01
     502,    1.166667e+01,    9.333333e+00,    2.333333e+01
     503,    1.166667e+01,    9.333333e+00,    2.100000e+01
     504,    1.166667e+01,    9.333333e+00,    1.866667e+01
     505,    1.166667e+01,    9.333333e+00,    1.633333e+01
     506,    1.166667e+01,    1.166667e+01,    3.266667e+01
     507,    1.166667e+01,    1.166667e+01,    3.033333e+01
     508,    1.166667e+01,    1.166667e+01,    2.800000e+01
     509,    1.166667e+01,    1.166667e+01,    2.566667e+01
     510,    1.166667e+01,    1.166667e+01,    2.333333e+01
     511,    1.166667e+01,    1.166667e+01,    2.100000e+01
     512,    1.166667e+01,    1.166667e+01,    1.866667e+01
     513,    1.166667e+01,    1.166667e+01,    1.633333e+01
     514,    1.166667e+01,    1.400000e+01,    3.266667e+01
     515,    1.166667e+01,    1.400000e+01,    3.033333e+01
     516,    1.166667e+01,    1.400000e+01,    2.800000e+01
     517,    1.166667e+01,    1.400000e+01,    2.566667e+01
     518,    1.166667e+01,    1.400000e+01,    2.333333e+01
     519,    1.166667e+01,    1.400000e+01,    2.100000e+01
     520,    1.166667e+01,    1.400000e+01,    1.866667e+01
     521,    1.166667e+01,    1.400000e+01,    1.633333e+01
     522,    1.166667e+01,    1.633333e+01,    3.266667e+01
     523,    1.166667e+01,    1.633333e+01,    3.033333e+01
     524,    1.166667e+01,    1.633333e+01,    2.800000e+01
     525,    1.166667e+01,    1.633333e+01,    2.566667e+01
     526,    1.166667e+01,    1.633333e+01,    2.333333e+01
     527,    1.166667e+01,    1.633333e+01,    2.100000e+01
     528,    1.166667e+01,    1.633333e+01,    1.866667e+01
     529,    1.166667e+01,    1.633333e+01,    1.633333e+01
     530,    1.166667e+01,    1.866667e+01,    3.266667e+01
     531,    1.166667e+01,    1.866667e+01,    3.033333e+01
     532,    1.166667e+01,    1.866667e+01,    2.800000e+01
     533,    1.166667e+01,    1.866667e+01,    2.566667e+01
     534,    1.166667e+01,    1.866667e+01,    2.333333e+01
     535,    1.166667e+01,    1.866667e+01,    2.100000e+01
     536,    1.166667e+01,    1.866667e+01,    1.866667e+01
     537,    1.166667e+01,    1.866667e+01,    1.633333e+01
     538,    1.400000e+01,    2.333333e+00,    3.266667e+01
     539,    1.400000e+01,    2.333333e+00,    3.033333e+01
     540,    1.400000e+01,    2.333333e+00,    2.800000e+01
     541,    1.400000e+01,    2.333333e+00,    2.566667e+01
     542,    1.400000e+01,    2.333333e+00,    2.333333e+01
     543,    1.400000e+01,    2.333333e+00,    2.100000e+01
     544,    1.400000e+01,    2.333333e+00,    1.866667e+01
     545,    1.400000e+01,    2.333333e+00,    1.633333e+01
     546,    1.400000e+01,    4.666667e+00,    3.266667e+01
     547,    1.400000e+01,    4.666667e+00,    3.033333e+01
     548,    1.400000e+01,    4.666667e+00,    2.800000e+01
     549,    1.400000e+01,    4.666667e+00,    2.566667e+01
     550,    1.400000e+01,    4.666667e+00,    2.333333e+01
     551,    1.400000e+01,    4.666667e+00,    2.100000e+01
     552,    1.400000e+01,    4.666667e+00,    1.866667e+01
     553,    1.400000e+01,    4.666667e+00,    1.633333e+01
     554,    1.400000e+01,    7.000000e+00,    3.266667e+01
     555,    1.400000e+01,    7.000000e+00,    3.033333e+01
     556,    1.400000e+01,    7.000000e+00,    2.800000e+01
     557,    1.400000e+01,    7.000000e+00,    2.566667e+01
     558,    1.400000e+01,    7.000000e+00,    2.333333e+01
     559,    1.400000e+01,    7.000000e+00,    2.100000e+01
     560,    1.400000e+01,    7.000000e+00,    1.866667e+01
     561,    1.400000e+01,    7.000000e+00,    1.633333e+01
     562,    1.400000e+01,    9.333333e+00,    3.266667e+01
     563,    1.400000e+01,    9.333333e+00,    3.033333e+01
     564,    1.400000e+01,    9.333333e+00,    2.800000e+01
     565,    1.400000e+01,    9.333333e+00,    2.566667e+01
     566,    1.400000e+01,    9.333333e+00,    2.333333e+01
     567,    1.400000e+01,    9.333333e+00,    2.100000e+01
     568,    1.400000e+01,    9.333333e+00,    1.866667e+01
     569,    1.400000e+01,    9.333333e+00,    1.633333e+01
     570,    1.400000e+01,    1.166667e+01,    3.266667e+01
     571,    1.400000e+01,    1.166667e+01,    3.033333e+01
     572,    1.400000e+01,    1.166667e+01,    2.800000e+01
     573,    1.400000e+01,    1.166667e+01,    2.566667e+01
     574,    1.400000e+01,    1.166667e+01,    2.333333e+01
     575,    1.400000e+01,    1.166667e+01,    2.100000e+01
     576,    1.400000e+01,    1.166667e+01,    1.866667e+01
     577,    1.400000e+01,    1.166667e+01,    1.633333e+01
     578,    1.400000e+01,    1.400000e+01,    3.266667e+01
     579,    1.400000e+01,    1.400000e+01,    3.033333e+01
     580,    1.400000e+01,    1.400000e+01,    2.800000e+01
     581,    1.400000e+01,    1.400000e+01,    2.566667e+01
     582,    1.400000e+01,    1.400000e+01,    2.333333e+01
     583,    1.400000e+01,    1.400000e+01,    2.100000e+01
     584,    1.400000e+01,    1.400000e+01,    1.866667e+01
     585,    1.400000e+01,    1.400000e+01,    1.633333e+01
     586,    1.400000e+01,    1.633333e+01,    3.266667e+01
     587,    1.400000e+01,    1.633333e+01,    3.033333e+01
     588,    1.400000e+01,    1.633333e+01,    2.800000e+01
     589,    1.400000e+01,    1.633333e+01,    2.566667e+01
     590,    1.400000e+01,    1.633333e+01,    2.333333e+01
     591,    1.400000e+01,    1.633333e+01,    2.100000e+01
     592,    1.400000e+01,    1.633333e+01,    1.866667e+01
     593,    1.400000e+01,    1.633333e+01,    1.633333e+01
     594,    1.400000e+01,    1.866667e+01,    3.266667e+01
     595,    1.400000e+01,    1.866667e+01,    3.033333e+01
     596,    1.400000e+01,    1.866667e+01,    2.800000e+01
     597,    1.400000e+01,    1.866667e+01,    2.566667e+01
     598,    1.400000e+01,    1.866667e+01,    2.333333e+01
     599,    1.400000e+01,    1.866667e+01,    2.100000e+01
     600,    1.400000e+01,    1.866667e+01,    1.866667e+01
     601,    1.400000e+01,    1.866667e+01,    1.633333e+01
     602,    1.633333e+01,    2.333333e+00,    3.266667e+01
     603,    1.633333e+01,    2.333333e+00,    3.033333e+01
     604,    1.633333e+01,    2.333333e+00,    2.800000e+01
     605,    1.633333e+01,    2.333333e+00,    2.566667e+01
     606,    1.633333e+01,    2.333333e+00,    2.333333e+01
     607,    1.633333e+01,    2.333333e+00,    2.100000e+01
     608,    1.633333e+01,    2.333333e+00,    1.866667e+01
     609,    1.633333e+01,    2.333333e+00,    1.633333e+01
     610,    1.633333e+01,    4.666667e+00,    3.266667e+01
     611,    1.633333e+01,    4.666667e+00,    3.033333e+01
     612,    1.633333e+01,    4.666667e+00,    2.800000e+01
     613,    1.633333e+01,    4.666667e+00,    2.566667e+01
     614,    1.633333e+01,    4.666667e+00,    2.333333e+01
     615,    1.633333e+01,    4.666667e+00,    2.100000e+01
     616,    1.633333e+01,    4.666667e+00,    1.866667e+01
     617,    1.633333e+01,    4.666667e+00,    1.633333e+01
     618,    1.633333e+01,    7.000000e+00,    3.266667e+01
     619,    1.633333e+01,    7.000000e+00,    3.033333e+01
     620,    1.633333e+01,    7.000000e+00,    2.800000e+01
     621,    1.633333e+01,    7.000000e+00,    2.566667e+01
     622,    1.633333e+01,    7.000000e+00,    2.333333e+01
     623,    1.633333e+01,    7.000000e+00,    2.100000e+01
     624,    1.633333e+01,    7.000000e+00,    1.866667e+01
     625,    1.633333e+01,    7.000000e+00,    1.633333e+01
     626,    1.633333e+01,    9.333333e+00,    3.266667e+01
     627,    1.633333e+01,    9.333333e+00,    3.033333e+01
     628,    1.633333e+01,    9.333333e+00,    2.800000e+01
     629,    1.633333e+01,    9.333333e+00,    2.566667e+01
     630,    1.633333e+01,    9.333333e+00,    2.333333e+01
     631,    1.633333e+01,    9.333333e+00,    2.100000e+01
     632,    1.633333e+01,    9.333333e+00,    1.866667e+01
     633,    1.633333e+01,    9.333333e+00,    1.633333e+01
     634,    1.633333e+01,    1.166667e+01,    3.266667e+01
     635,    1.633333e+01,    1.166667e+01,    3.033333e+01
     636,    1.633333e+01,    1.166667e+01,    2.800000e+01
     637,    1.633333e+01,    1.166667e+01,    2.566667e+01
     638,    1.633333e+01,    1.166667e+01,    2.333333e+01
     639,    1.633333e+01,    1.166667e+01,    2.100000e+01
     640,    1.633333e+01,    1.166667e+01,    1.866667e+01
     641,    1.633333e+01,    1.166667e+01,    1.633333e+01
     642,    1.633333e+01,    1.400000e+01,    3.266667e+01
     643,    1.633333e+01,    1.400000e+01,    3.033333e+01
     644,    1.633333e+01,    1.400000e+01,    2.800000e+01
     645,    1.633333e+01,    1.400000e+01,    2.566667e+01
     646,    1.633333e+01,    1.400000e+01,    2.333333e+01
     647,    1.633333e+01,    1.400000e+01,    2.100000e+01
     648,    1.633333e+01,    1.400000e+01,    1.866667e+01
     649,    1.633333e+01,    1.400000e+01,    1.633333e+01
     650,    1.633333e+01,    1.633333e+01,    3.266667e+01
     651,    1.633333e+01,    1.633333e+01,    3.033333e+01
     652,    1.633333e+01,    1.633333e+01,    2.800000e+01
     653,    1.633333e+01,    1.633333e+01,    2.566667e+01
     654,    1.633333e+01,    1.633333e+01,    2.333333e+01
     655,    1.633333e+01,    1.633333e+01,    2.100000e+01
     656,    1.633333e+01,    1.633333e+01,    1.866667e+01
     657,    1.633333e+01,    1.633333e+01,    1.633333e+01
     658,    1.633333e+01,    1.866667e+01,    3.266667e+01
     659,    1.633333e+01,    1.866667e+01,    3.033333e+01
     660,    1.633333e+01,    1.866667e+01,    2.800000e+01
     661,    1.633333e+01,    1.866667e+01,    2.566667e+01
     662,    1.633333e+01,    1.866667e+01,    2.333333e+01
     663,    1.633333e+01,    1.866667e+01,    2.100000e+01
     664,    1.633333e+01,    1.866667e+01,    1.866667e+01
     665,    1.633333e+01,    1.866667e+01,    1.633333e+01
     666,    1.866667e+01,    2.333333e+00,    3.266667e+01
     667,    1.866667e+01,    2.333333e+00,    3.033333e+01
     668,    1.866667e+01,    2.333333e+00,    2.800000e+01
     669,    1.866667e+01,    2.333333e+00,    2.566667e+01
     670,    1.866667e+01,    2.333333e+00,    2.333333e+01
     671,    1.866667e+01,    2.333333e+00,    2.100000e+01
     672,    1.866667e+01,    2.333333e+00,    1.866667e+01
     673,    1.866667e+01,    2.333333e+00,    1.633333e+01
     674,    1.866667e+01,    4.666667e+00,    3.266667e+01
     675,    1.866667e+01,    4.666667e+00,    3.033333e+01
     676,    1.866667e+01,    4.666667e+00,    2.800000e+01
     677,    1.866667e+01,    4.666667e+00,    2.566667e+01
     678,    1.866667e+01,    4.666667e+00,    2.333333e+01
     679,    1.866667e+01,    4.666667e+00,    2.100000e+01
     680,    1.866667e+01,    4.666667e+00,    1.866667e+01
     681,    1.866667e+01,    4.666667e+00,    1.633333e+01
     682,    1.866667e+01,    7.000000e+00,    3.266667e+01
     683,    1.866667e+01,    7.000000e+00,    3.033333e+01
     684,    1.866667e+01,    7.000000e+00,    2.800000e+01
     685,    1.866667e+01,    7.000000e+00,    2.566667e+01
     686,    1.866667e+01,    7.000000e+00,    2.333333e+01
     687,    1.866667e+01,    7.000000e+00,    2.100000e+01
     688,    1.866667e+01,    7.000000e+00,    1.866667e+01
     689,    1.866667e+01,    7.000000e+00,    1.633333e+01
     690,    1.866667e+01,    9.333333e+00,    3.266667e+01
     691,    1.866667e+01,    9.333333e+00,    3.033333e+01
     692,    1.866667e+01,    9.333333e+00,    2.800000e+01
     693,    1.866667e+01,    9.333333e+00,    2.566667e+01
     694,    1.866667e+01,    9.333333e+00,    2.333333e+01
     695,    1.866667e+01,    9.333333e+00,    2.100000e+01
     696,    1.866667e+01,    9.333333e+00,    1.866667e+01
     697,    1.866667e+01,    9.333333e+00,    1.633333e+01
     698,    1.866667e+01,    1.166667e+01,    3.266667e+01
     699,    1.866667e+01,    1.166667e+01,    3.033333e+01
     700,    1.866667e+01,    1.166667e+01,    2.800000e+01
     701,    1.866667e+01,    1.166667e+01,    2.566667e+01
     702,    1.866667e+01,    1.166667e+01,    2.333333e+01
     703,    1.866667e+01,    1.166667e+01,    2.100000e+01
     704,    1.866667e+01,    1.166667e+01,    1.866667e+01
     705,    1.866667e+01,    1.166667e+01,    1.633333e+01
     706,    1.866667e+01,    1.400000e+01,    3.266667e+01
     707,    1.866667e+01,    1.400000e+01,    3.033333e+01
     708,    1.866667e+01,    1.400000e+01,    2.800000e+01
     709,    1.866667e+01,    1.400000e+01,    2.566667e+01
     710,    1.866667e+01,    1.400000e+01,    2.333333e+01
     711,    1.866667e+01,    1.400000e+01,    2.100000e+01
     712,    1.866667e+01,    1.400000e+01,    1.866667e+01
     713,    1.866667e+01,    1.400000e+01,    1.633333e+01
     714,    1.866667e+01,    1.633333e+01,    3.266667e+01
     715,    1.866667e+01,    1.633333e+01,    3.033333e+01
     716,    1.866667e+01,    1.633333e+01,    2.800000e+01
     717,    1.866667e+01,    1.633333e+01,    2.566667e+01
     718,    1.866667e+01,    1.633333e+01,    2.333333e+01
     719,    1.866667e+01,    1.633333e+01,    2.100000e+01
     720,    1.866667e+01,    1.633333e+01,    1.866667e+01
     721,    1.866667e+01,    1.633333e+01,    1.633333e+01
     722,    1.866667e+01,    1.866667e+01,    3.266667e+01
     723,    1.866667e+01,    1.866667e+01,    3.033333e+01
     724,    1.866667e+01,    1.866667e+01,    2.800000e+01
     725,    1.866667e+01,    1.866667e+01,    2.566667e+01
     726,    1.866667e+01,    1.866667e+01,    2.333333e+01
     727,    1.866667e+01,    1.866667e+01,    2.100000e+01
     728,    1.866667e+01,    1.866667e+01,    1.866667e+01
     729,    1.866667e+01,    1.866667e+01,    1.633333e+01
     730,    2.100000e+01,    2.100000e+01,    1.400000e+01
     731,    2.100000e+01,    0.000000e+00,    1.400000e+01
     732,    2.100000e+01,    1.400000e+01,    1.400000e+01
     733,    2.100000e+01,    7.000000e+00,    1.400000e+01
     734,    0.000000e+00,    2.100000e+01,    1.400000e+01
     735,    7.000000e+00,    2.100000e+01,    1.400000e+01
     736,    1.400000e+01,    2.100000e+01,    1.400000e+01
     737,    0.000000e+00,    0.000000e+00,    1.400000e+01
     738,    0.000000e+00,    7.000000e+00,    1.400000e+01
     739,    0.000000e+00,    1.400000e+01,    1.400000e+01
     740,    1.400000e+01,    0.000000e+00,    1.400000e+01
     741,    7.000000e+00,    0.000000e+00,    1.400000e+01
     742,    1.400000e+01,    7.000000e+00,    1.400000e+01
     743,    1.400000e+01,    1.400000e+01,    1.400000e+01
     744,    7.000000e+00,    7.000000e+00,    1.400000e+01
     745,    7.000000e+00,    1.400000e+01,    1.400000e+01
     746,    2.100000e+01,    2.100000e+01,    3.500000e+01
     747,    2.100000e+01,    2.100000e+01,    2.800000e+01
     748,    2.100000e+01,    2.100000e+01,    2.100000e+01
     749,    0.000000e+00,    2.100000e+01,    3.500000e+01
     750,    7.000000e+00,    2.100000e+01,    3.500000e+01
     751,    1.400000e+01,    2.100000e+01,    3.500000e+01
     752,    0.000000e+00,    2.100000e+01,    2.100000e+01
     753,    0.000000e+00,    2.100000e+01,    2.800000e+01
     754,    1.400000e+01,    2.100000e+01,    2.100000e+01
     755,    1.400000e+01,    2.100000e+01,    2.800000e+01
     756,    7.000000e+00,    2.100000e+01,    2.100000e+01
     757,    7.000000e+00,    2.100000e+01,    2.800000e+01
     758,    2.100000e+01,    0.000000e+00,    3.500000e+01
     759,    2.100000e+01,    0.000000e+00,    2.800000e+01
     760,    2.100000e+01,    0.000000e+00,    2.100000e+01
     761,    2.100000e+01,    1.400000e+01,    3.500000e+01
     762,    2.100000e+01,    7.000000e+00,    3.500000e+01
     763,    2.100000e+01,    7.000000e+00,    2.100000e+01
     764,    2.100000e+01,    7.000000e+00,    2.800000e+01
     765,    2.100000e+01,    1.400000e+01,    2.100000e+01
     766,    2.100000e+01,    1.400000e+01,    2.800000e+01
     767,    3.500000e+01,    0.000000e+00,    3.500000e+01
     768,    2.800000e+01,    0.000000e+00,    3.500000e+01
     769,    3.500000e+01,    3.500000e+01,    3.500000e+01
     770,    3.500000e+01,    7.000000e+00,    3.500000e+01
     771,    3.500000e+01,    1.400000e+01,    3.500000e+01
     772,    3.500000e+01,    2.100000e+01,    3.500000e+01
     773,    3.500000e+01,    2.800000e+01,    3.500000e+01
     774,    0.000000e+00,    3.500000e+01,    3.500000e+01
     775,    2.800000e+01,    3.500000e+01,    3.500000e+01
     776,    2.100000e+01,    3.500000e+01,    3.500000e+01
     777,    1.400000e+01,    3.500000e+01,    3.500000e+01
     778,    7.000000e+00,    3.500000e+01,    3.500000e+01
     779,    0.000000e+00,    2.800000e+01,    3.500000e+01
     780,    2.100000e+01,    2.800000e+01,    3.500000e+01
     781,    2.800000e+01,    7.000000e+00,    3.500000e+01
     782,    2.800000e+01,    1.400000e+01,    3.500000e+01
     783,    2.800000e+01,    2.100000e+01,    3.500000e+01
     784,    2.800000e+01,    2.800000e+01,    3.500000e+01
     785,    1.400000e+01,    2.800000e+01,    3.500000e+01
     786,    7.000000e+00,    2.800000e+01,    3.500000e+01
     787,    0.000000e+00,    0.000000e+00,   -3.500000e+01
     788,    0.000000e+00,    0.000000e+00,    7.000000e+00
     789,    0.000000e+00,    0.000000e+00,    0.000000e+00
     790,    0.000000e+00,    0.000000e+00,   -7.000000e+00
     791,    0.000000e+00,    0.000000e+00,   -1.400000e+01
     792,    0.000000e+00,    0.000000e+00,   -2.100000e+01
     793,    0.000000e+00,    0.000000e+00,   -2.800000e+01
     794,    3.500000e+01,    0.000000e+00,   -3.500000e+01
     795,    2.800000e+01,    0.000000e+00,   -3.500000e+01
     796,    2.100000e+01,    0.000000e+00,   -3.500000e+01
     797,    1.400000e+01,    0.000000e+00,   -3.500000e+01
     798,    7.000000e+00,    0.000000e+00,   -3.500000e+01
     799,    3.500000e+01,    0.000000e+00,    2.800000e+01
     800,    3.500000e+01,    0.000000e+00,    2.100000e+01
     801,    3.500000e+01,    0.000000e+00,    1.400000e+01
     802,    3.500000e+01,    0.000000e+00,    7.000000e+00
     803,    3.500000e+01,    0.000000e+00,    0.000000e+00
     804,    3.500000e+01,    0.000000e+00,   -7.000000e+00
     805,    3.500000e+01,    0.000000e+00,   -1.400000e+01
     806,    3.500000e+01,    0.000000e+00,   -2.100000e+01
     807,    3.500000e+01,    0.000000e+00,   -2.800000e+01
     808,    2.800000e+01,    0.000000e+00,    1.400000e+01
     809,    7.000000e+00,    0.000000e+00,    7.000000e+00
     810,    7.000000e+00,    0.000000e+00,   -1.776357e-15
     811,    7.000000e+00,    0.000000e+00,   -7.000000e+00
     812,    7.000000e+00,    0.000000e+00,   -1.400000e+01
     813,    7.000000e+00,    0.000000e+00,   -2.100000e+01
     814,    7.000000e+00,    0.000000e+00,   -2.800000e+01
     815,    1.400000e+01,    0.000000e+00,    7.000000e+00
     816,    1.400000e+01,    0.000000e+00,   -8.881784e-16
     817,    1.400000e+01,    0.000000e+00,   -7.000000e+00
     818,    1.400000e+01,    0.000000e+00,   -1.400000e+01
     819,    1.400000e+01,    0.000000e+00,   -2.100000e+01
     820,    1.400000e+01,    0.000000e+00,   -2.800000e+01
     821,    2.100000e+01,    0.000000e+00,    7.000000e+00
     822,    2.100000e+01,    0.000000e+00,   -8.881784e-16
     823,    2.100000e+01,    0.000000e+00,   -7.000000e+00
     824,    2.100000e+01,    0.000000e+00,   -1.400000e+01
     825,    2.100000e+01,    0.000000e+00,   -2.100000e+01
     826,    2.100000e+01,    0.000000e+00,   -2.800000e+01
     827,    2.800000e+01,    0.000000e+00,    7.000000e+00
     828,    2.800000e+01,    0.000000e+00,   -1.776357e-15
     829,    2.800000e+01,    0.000000e+00,   -7.000000e+00
     830,    2.800000e+01,    0.000000e+00,   -1.400000e+01
     831,    2.800000e+01,    0.000000e+00,   -2.100000e+01
     832,    2.800000e+01,    0.000000e+00,   -2.800000e+01
     833,    2.800000e+01,    0.000000e+00,    2.100000e+01
     834,    2.800000e+01,    0.000000e+00,    2.800000e+01
     835,    3.500000e+01,    3.500000e+01,   -3.500000e+01
     836,    3.500000e+01,    2.800000e+01,   -3.500000e+01
     837,    3.500000e+01,    2.100000e+01,   -3.500000e+01
     838,    3.500000e+01,    1.400000e+01,   -3.500000e+01
     839,    3.500000e+01,    7.000000e+00,   -3.500000e+01
     840,    0.000000e+00,    3.500000e+01,   -3.500000e+01
     841,    0.000000e+00,    7.000000e+00,   -3.500000e+01
     842,    0.000000e+00,    1.400000e+01,   -3.500000e+01
     843,    0.000000e+00,    2.100000e+01,   -3.500000e+01
     844,    0.000000e+00,    2.800000e+01,   -3.500000e+01
     845,    7.000000e+00,    3.500000e+01,   -3.500000e+01
     846,    1.400000e+01,    3.500000e+01,   -3.500000e+01
     847,    2.100000e+01,    3.500000e+01,   -3.500000e+01
     848,    2.800000e+01,    3.500000e+01,   -3.500000e+01
     849,    2.800000e+01,    2.800000e+01,   -3.500000e+01
     850,    2.800000e+01,    2.100000e+01,   -3.500000e+01
     851,    2.800000e+01,    1.400000e+01,   -3.500000e+01
     852,    2.800000e+01,    7.000000e+00,   -3.500000e+01
     853,    2.100000e+01,    2.800000e+01,   -3.500000e+01
     854,    2.100000e+01,    2.100000e+01,   -3.500000e+01
     855,    2.100000e+01,    1.400000e+01,   -3.500000e+01
     856,    2.100000e+01,    7.000000e+00,   -3.500000e+01
     857,    1.400000e+01,    2.800000e+01,   -3.500000e+01
     858,    1.400000e+01,    2.100000e+01,   -3.500000e+01
     859,    1.400000e+01,    1.400000e+01,   -3.500000e+01
     860,    1.400000e+01,    7.000000e+00,   -3.500000e+01
     861,    7.000000e+00,    2.800000e+01,   -3.500000e+01
     862,    7.000000e+00,    2.100000e+01,   -3.500000e+01
     863,    7.000000e+00,    1.400000e+01,   -3.500000e+01
     864,    7.000000e+00,    7.000000e+00,   -3.500000e+01
     865,    0.000000e+00,    3.500000e+01,    2.800000e+01
     866,    0.000000e+00,    3.500000e+01,    2.100000e+01
     867,    0.000000e+00,    3.500000e+01,    1.400000e+01
     868,    0.000000e+00,    3.500000e+01,    7.000000e+00
     869,    0.000000e+00,    3.500000e+01,    0.000000e+00
     870,    0.000000e+00,    3.500000e+01,   -7.000000e+00
     871,    0.000000e+00,    3.500000e+01,   -1.400000e+01
     872,    0.000000e+00,    3.500000e+01,   -2.100000e+01
     873,    0.000000e+00,    3.500000e+01,   -2.800000e+01
     874,    0.000000e+00,    2.800000e+01,    1.400000e+01
     875,    0.000000e+00,    2.800000e+01,    2.100000e+01
     876,    0.000000e+00,    2.800000e+01,    2.800000e+01
     877,    0.000000e+00,    2.800000e+01,    7.000000e+00
     878,    0.000000e+00,    2.800000e+01,   -1.776357e-15
     879,    0.000000e+00,    2.800000e+01,   -7.000000e+00
     880,    0.000000e+00,    2.800000e+01,   -1.400000e+01
     881,    0.000000e+00,    2.800000e+01,   -2.100000e+01
     882,    0.000000e+00,    2.800000e+01,   -2.800000e+01
     883,    0.000000e+00,    2.100000e+01,    7.000000e+00
     884,    0.000000e+00,    2.100000e+01,   -8.881784e-16
     885,    0.000000e+00,    2.100000e+01,   -7.000000e+00
     886,    0.000000e+00,    2.100000e+01,   -1.400000e+01
     887,    0.000000e+00,    2.100000e+01,   -2.100000e+01
     888,    0.000000e+00,    2.100000e+01,   -2.800000e+01
     889,    0.000000e+00,    1.400000e+01,    7.000000e+00
     890,    0.000000e+00,    1.400000e+01,   -8.881784e-16
     891,    0.000000e+00,    1.400000e+01,   -7.000000e+00
     892,    0.000000e+00,    1.400000e+01,   -1.400000e+01
     893,    0.000000e+00,    1.400000e+01,   -2.100000e+01
     894,    0.000000e+00,    1.400000e+01,   -2.800000e+01
     895,    0.000000e+00,    7.000000e+00,    7.000000e+00
     896,    0.000000e+00,    7.000000e+00,   -1.776357e-15
     897,    0.000000e+00,    7.000000e+00,   -7.000000e+00
     898,    0.000000e+00,    7.000000e+00,   -1.400000e+01
     899,    0.000000e+00,    7.000000e+00,   -2.100000e+01
     900,    0.000000e+00,    7.000000e+00,   -2.800000e+01
     901,    3.500000e+01,    3.500000e+01,    2.800000e+01
     902,    3.500000e+01,    3.500000e+01,    2.100000e+01
     903,    3.500000e+01,    3.500000e+01,    1.400000e+01
     904,    3.500000e+01,    3.500000e+01,    7.000000e+00
     905,    3.500000e+01,    3.500000e+01,    0.000000e+00
     906,    3.500000e+01,    3.500000e+01,   -7.000000e+00
     907,    3.500000e+01,    3.500000e+01,   -1.400000e+01
     908,    3.500000e+01,    3.500000e+01,   -2.100000e+01
     909,    3.500000e+01,    3.500000e+01,   -2.800000e+01
     910,    2.800000e+01,    3.500000e+01,    2.800000e+01
     911,    2.800000e+01,    3.500000e+01,    2.100000e+01
     912,    2.800000e+01,    3.500000e+01,    1.400000e+01
     913,    2.800000e+01,    3.500000e+01,    7.000000e+00
     914,    2.800000e+01,    3.500000e+01,    0.000000e+00
     915,    2.800000e+01,    3.500000e+01,   -7.000000e+00
     916,    2.800000e+01,    3.500000e+01,   -1.400000e+01
     917,    2.800000e+01,    3.500000e+01,   -2.100000e+01
     918,    2.800000e+01,    3.500000e+01,   -2.800000e+01
     919,    2.100000e+01,    3.500000e+01,    2.800000e+01
     920,    2.100000e+01,    3.500000e+01,    2.100000e+01
     921,    2.100000e+01,    3.500000e+01,    1.400000e+01
     922,    2.100000e+01,    3.500000e+01,    7.000000e+00
     923,    2.100000e+01,    3.500000e+01,    0.000000e+00
     924,    2.100000e+01,    3.500000e+01,   -7.000000e+00
     925,    2.100000e+01,    3.500000e+01,   -1.400000e+01
     926,    2.100000e+01,    3.500000e+01,   -2.100000e+01
     927,    2.100000e+01,    3.500000e+01,   -2.800000e+01
     928,    1.400000e+01,    3.500000e+01,    2.800000e+01
     929,    1.400000e+01,    3.500000e+01,    2.100000e+01
     930,    1.400000e+01,    3.500000e+01,    1.400000e+01
     931,    1.400000e+01,    3.500000e+01,    7.000000e+00
     932,    1.400000e+01,    3.500000e+01,    0.000000e+00
     933,    1.400000e+01,    3.500000e+01,   -7.000000e+00
     934,    1.400000e+01,    3.500000e+01,   -1.400000e+01
     935,    1.400000e+01,    3.500000e+01,   -2.100000e+01
     936,    1.400000e+01,    3.500000e+01,   -2.800000e+01
     937,    7.000000e+00,    3.500000e+01,    2.800000e+01
     938,    7.000000e+00,    3.500000e+01,    2.100000e+01
     939,    7.000000e+00,    3.500000e+01,    1.400000e+01
     940,    7.000000e+00,    3.500000e+01,    7.000000e+00
     941,    7.000000e+00,    3.500000e+01,    0.000000e+00
     942,    7.000000e+00,    3.500000e+01,   -7.000000e+00
     943,    7.000000e+00,    3.500000e+01,   -1.400000e+01
     944,    7.000000e+00,    3.500000e+01,   -2.100000e+01
     945,    7.000000e+00,    3.500000e+01,   -2.800000e+01
     946,    3.500000e+01,    7.000000e+00,    2.800000e+01
     947,    3.500000e+01,    7.000000e+00,    2.100000e+01
     948,    3.500000e+01,    7.000000e+00,    1.400000e+01
     949,    3.500000e+01,    7.000000e+00,    7.000000e+00
     950,    3.500000e+01,    7.000000e+00,    0.000000e+00
     951,    3.500000e+01,    7.000000e+00,   -7.000000e+00
     952,    3.500000e+01,    7.000000e+00,   -1.400000e+01
     953,    3.500000e+01,    7.000000e+00,   -2.100000e+01
     954,    3.500000e+01,    7.000000e+00,   -2.800000e+01
     955,    3.500000e+01,    1.400000e+01,    2.800000e+01
     956,    3.500000e+01,    1.400000e+01,    2.100000e+01
     957,    3.500000e+01,    1.400000e+01,    1.400000e+01
     958,    3.500000e+01,    1.400000e+01,    7.000000e+00
     959,    3.500000e+01,    1.400000e+01,    0.000000e+00
     960,    3.500000e+01,    1.400000e+01,   -7.000000e+00
     961,    3.500000e+01,    1.400000e+01,   -1.400000e+01
     962,    3.500000e+01,    1.400000e+01,   -2.100000e+01
     963,    3.500000e+01,    1.400000e+01,   -2.800000e+01
     964,    3.500000e+01,    2.100000e+01,    2.800000e+01
     965,    3.500000e+01,    2.100000e+01,    2.100000e+01
     966,    3.500000e+01,    2.100000e+01,    1.400000e+01
     967,    3.500000e+01,    2.100000e+01,    7.000000e+00
     968,    3.500000e+01,    2.100000e+01,    0.000000e+00
     969,    3.500000e+01,    2.100000e+01,   -7.000000e+00
     970,    3.500000e+01,    2.100000e+01,   -1.400000e+01
     971,    3.500000e+01,    2.100000e+01,   -2.100000e+01
     972,    3.500000e+01,    2.100000e+01,   -2.800000e+01
     973,    3.500000e+01,    2.800000e+01,    2.800000e+01
     974,    3.500000e+01,    2.800000e+01,    2.100000e+01
     975,    3.500000e+01,    2.800000e+01,    1.400000e+01
     976,    3.500000e+01,    2.800000e+01,    7.000000e+00
     977,    3.500000e+01,    2.800000e+01,    0.000000e+00
     978,    3.500000e+01,    2.800000e+01,   -7.000000e+00
     979,    3.500000e+01,    2.800000e+01,   -1.400000e+01
     980,    3.500000e+01,    2.800000e+01,   -2.100000e+01
     981,    3.500000e+01,    2.800000e+01,   -2.800000e+01
     982,    2.800000e+01,    2.100000e+01,    1.400000e+01
     983,    7.000000e+00,    2.800000e+01,    1.400000e+01
     984,    1.400000e+01,    2.800000e+01,    1.400000e+01
     985,    2.100000e+01,    2.800000e+01,    1.400000e+01
     986,    2.800000e+01,    2.800000e+01,    1.400000e+01
     987,    2.800000e+01,    1.400000e+01,    1.400000e+01
     988,    2.800000e+01,    7.000000e+00,    1.400000e+01
     989,    7.000000e+00,    7.000000e+00,   -2.800000e+01
     990,    1.400000e+01,    7.000000e+00,   -2.800000e+01
     991,    2.100000e+01,    7.000000e+00,   -2.800000e+01
     992,    2.800000e+01,    7.000000e+00,   -2.800000e+01
     993,    7.000000e+00,    1.400000e+01,   -2.800000e+01
     994,    1.400000e+01,    1.400000e+01,   -2.800000e+01
     995,    2.100000e+01,    1.400000e+01,   -2.800000e+01
     996,    2.800000e+01,    1.400000e+01,   -2.800000e+01
     997,    7.000000e+00,    2.100000e+01,   -2.800000e+01
     998,    1.400000e+01,    2.100000e+01,   -2.800000e+01
     999,    2.100000e+01,    2.100000e+01,   -2.800000e+01
    1000,    2.800000e+01,    2.100000e+01,   -2.800000e+01
    1001,    7.000000e+00,    2.800000e+01,   -2.800000e+01
    1002,    1.400000e+01,    2.800000e+01,   -2.800000e+01
    1003,    2.100000e+01,    2.800000e+01,   -2.800000e+01
    1004,    2.800000e+01,    2.800000e+01,   -2.800000e+01
    1005,    7.000000e+00,    7.000000e+00,   -2.100000e+01
    1006,    1.400000e+01,    7.000000e+00,   -2.100000e+01
    1007,    2.100000e+01,    7.000000e+00,   -2.100000e+01
    1008,    2.800000e+01,    7.000000e+00,   -2.100000e+01
    1009,    7.000000e+00,    1.400000e+01,   -2.100000e+01
    1010,    1.400000e+01,    1.400000e+01,   -2.100000e+01
    1011,    2.100000e+01,    1.400000e+01,   -2.100000e+01
    1012,    2.800000e+01,    1.400000e+01,   -2.100000e+01
    1013,    7.000000e+00,    2.100000e+01,   -2.100000e+01
    1014,    1.400000e+01,    2.100000e+01,   -2.100000e+01
    1015,    2.100000e+01,    2.100000e+01,   -2.100000e+01
    1016,    2.800000e+01,    2.100000e+01,   -2.100000e+01
    1017,    7.000000e+00,    2.800000e+01,   -2.100000e+01
    1018,    1.400000e+01,    2.800000e+01,   -2.100000e+01
    1019,    2.100000e+01,    2.800000e+01,   -2.100000e+01
    1020,    2.800000e+01,    2.800000e+01,   -2.100000e+01
    1021,    7.000000e+00,    7.000000e+00,   -1.400000e+01
    1022,    1.400000e+01,    7.000000e+00,   -1.400000e+01
    1023,    2.100000e+01,    7.000000e+00,   -1.400000e+01
    1024,    2.800000e+01,    7.000000e+00,   -1.400000e+01
    1025,    7.000000e+00,    1.400000e+01,   -1.400000e+01
    1026,    1.400000e+01,    1.400000e+01,   -1.400000e+01
    1027,    2.100000e+01,    1.400000e+01,   -1.400000e+01
    1028,    2.800000e+01,    1.400000e+01,   -1.400000e+01
    1029,    7.000000e+00,    2.100000e+01,   -1.400000e+01
    1030,    1.400000e+01,    2.100000e+01,   -1.400000e+01
    1031,    2.100000e+01,    2.100000e+01,   -1.400000e+01
    1032,    2.800000e+01,    2.100000e+01,   -1.400000e+01
    1033,    7.000000e+00,    2.800000e+01,   -1.400000e+01
    1034,    1.400000e+01,    2.800000e+01,   -1.400000e+01
    1035,    2.100000e+01,    2.800000e+01,   -1.400000e+01
    1036,    2.800000e+01,    2.800000e+01,   -1.400000e+01
    1037,    7.000000e+00,    7.000000e+00,   -7.000000e+00
    1038,    1.400000e+01,    7.000000e+00,   -7.000000e+00
    1039,    2.100000e+01,    7.000000e+00,   -7.000000e+00
    1040,    2.800000e+01,    7.000000e+00,   -7.000000e+00
    1041,    7.000000e+00,    1.400000e+01,   -7.000000e+00
    1042,    1.400000e+01,    1.400000e+01,   -7.000000e+00
    1043,    2.100000e+01,    1.400000e+01,   -7.000000e+00
    1044,    2.800000e+01,    1.400000e+01,   -7.000000e+00
    1045,    7.000000e+00,    2.100000e+01,   -7.000000e+00
    1046,    1.400000e+01,    2.100000e+01,   -7.000000e+00
    1047,    2.100000e+01,    2.100000e+01,   -7.000000e+00
    1048,    2.800000e+01,    2.100000e+01,   -7.000000e+00
    1049,    7.000000e+00,    2.800000e+01,   -7.000000e+00
    1050,    1.400000e+01,    2.800000e+01,   -7.000000e+00
    1051,    2.100000e+01,    2.800000e+01,   -7.000000e+00
    1052,    2.800000e+01,    2.800000e+01,   -7.000000e+00
    1053,    7.000000e+00,    7.000000e+00,   -7.993606e-15
    1054,    1.400000e+01,    7.000000e+00,   -5.329071e-15
    1055,    2.100000e+01,    7.000000e+00,   -3.330669e-15
    1056,    2.800000e+01,    7.000000e+00,   -7.993606e-15
    1057,    7.000000e+00,    1.400000e+01,   -5.551115e-15
    1058,    1.400000e+01,    1.400000e+01,   -5.773160e-15
    1059,    2.100000e+01,    1.400000e+01,   -4.884981e-15
    1060,    2.800000e+01,    1.400000e+01,   -3.552714e-15
    1061,    7.000000e+00,    2.100000e+01,   -5.995204e-15
    1062,    1.400000e+01,    2.100000e+01,   -4.884981e-15
    1063,    2.100000e+01,    2.100000e+01,   -4.440892e-15
    1064,    2.800000e+01,    2.100000e+01,   -3.552714e-15
    1065,    7.000000e+00,    2.800000e+01,   -9.769963e-15
    1066,    1.400000e+01,    2.800000e+01,   -7.105427e-15
    1067,    2.100000e+01,    2.800000e+01,   -4.440892e-15
    1068,    2.800000e+01,    2.800000e+01,   -1.776357e-15
    1069,    7.000000e+00,    7.000000e+00,    7.000000e+00
    1070,    1.400000e+01,    7.000000e+00,    7.000000e+00
    1071,    2.100000e+01,    7.000000e+00,    7.000000e+00
    1072,    2.800000e+01,    7.000000e+00,    7.000000e+00
    1073,    7.000000e+00,    1.400000e+01,    7.000000e+00
    1074,    1.400000e+01,    1.400000e+01,    7.000000e+00
    1075,    2.100000e+01,    1.400000e+01,    7.000000e+00
    1076,    2.800000e+01,    1.400000e+01,    7.000000e+00
    1077,    7.000000e+00,    2.100000e+01,    7.000000e+00
    1078,    1.400000e+01,    2.100000e+01,    7.000000e+00
    1079,    2.100000e+01,    2.100000e+01,    7.000000e+00
    1080,    2.800000e+01,    2.100000e+01,    7.000000e+00
    1081,    7.000000e+00,    2.800000e+01,    7.000000e+00
    1082,    1.400000e+01,    2.800000e+01,    7.000000e+00
    1083,    2.100000e+01,    2.800000e+01,    7.000000e+00
    1084,    2.800000e+01,    2.800000e+01,    7.000000e+00
    1085,    2.800000e+01,    2.100000e+01,    2.100000e+01
    1086,    2.800000e+01,    2.100000e+01,    2.800000e+01
    1087,    7.000000e+00,    2.800000e+01,    2.100000e+01
    1088,    1.400000e+01,    2.800000e+01,    2.100000e+01
    1089,    2.100000e+01,    2.800000e+01,    2.100000e+01
    1090,    2.800000e+01,    2.800000e+01,    2.100000e+01
    1091,    7.000000e+00,    2.800000e+01,    2.800000e+01
    1092,    1.400000e+01,    2.800000e+01,    2.800000e+01
    1093,    2.100000e+01,    2.800000e+01,    2.800000e+01
    1094,    2.800000e+01,    2.800000e+01,    2.800000e+01
    1095,    2.800000e+01,    7.000000e+00,    2.100000e+01
    1096,    2.800000e+01,    1.400000e+01,    2.100000e+01
    1097,    2.800000e+01,    7.000000e+00,    2.800000e+01
    1098,    2.800000e+01,    1.400000e+01,    2.800000e+01
    1099,    2.100000e+01,    2.333333e+01,    1.400000e+01
    1100,    2.333333e+01,    2.100000e+01,    1.400000e+01
    1101,    2.100000e+01,    2.100000e+01,    1.166667e+01
    1102,    2.333333e+01,    2.333333e+01,    1.400000e+01
    1103,    2.333333e+01,    2.100000e+01,    1.166667e+01
    1104,    2.100000e+01,    2.333333e+01,    1.166667e+01
    1105,    2.333333e+01,    2.333333e+01,    1.166667e+01
    1106,    2.333333e+01,    0.000000e+00,    1.400000e+01
    1107,    2.100000e+01,    0.000000e+00,    1.166667e+01
    1108,    2.333333e+01,    7.000000e+00,    1.400000e+01
    1109,    2.100000e+01,    7.000000e+00,    1.166667e+01
    1110,    2.333333e+01,    0.000000e+00,    1.166667e+01
    1111,    2.333333e+01,    7.000000e+00,    1.166667e+01
    1112,    2.333333e+01,    1.400000e+01,    1.400000e+01
    1113,    2.100000e+01,    1.400000e+01,    1.166667e+01
    1114,    2.333333e+01,    1.400000e+01,    1.166667e+01
    1115,    0.000000e+00,    2.333333e+01,    1.400000e+01
    1116,    0.000000e+00,    2.100000e+01,    1.166667e+01
    1117,    7.000000e+00,    2.333333e+01,    1.400000e+01
    1118,    7.000000e+00,    2.100000e+01,    1.166667e+01
    1119,    0.000000e+00,    2.333333e+01,    1.166667e+01
    1120,    7.000000e+00,    2.333333e+01,    1.166667e+01
    1121,    1.400000e+01,    2.333333e+01,    1.400000e+01
    1122,    1.400000e+01,    2.100000e+01,    1.166667e+01
    1123,    1.400000e+01,    2.333333e+01,    1.166667e+01
    1124,    2.333333e+01,    2.100000e+01,    2.100000e+01
    1125,    2.100000e+01,    2.333333e+01,    2.100000e+01
    1126,    2.333333e+01,    2.333333e+01,    2.100000e+01
    1127,    2.333333e+01,    2.100000e+01,    2.800000e+01
    1128,    2.100000e+01,    2.333333e+01,    2.800000e+01
    1129,    2.333333e+01,    2.333333e+01,    2.800000e+01
    1130,    2.333333e+01,    2.100000e+01,    3.500000e+01
    1131,    2.100000e+01,    2.333333e+01,    3.500000e+01
    1132,    2.333333e+01,    2.333333e+01,    3.500000e+01
    1133,    0.000000e+00,    0.000000e+00,    1.166667e+01
    1134,    7.000000e+00,    7.000000e+00,    1.166667e+01
    1135,    7.000000e+00,    0.000000e+00,    1.166667e+01
    1136,    0.000000e+00,    7.000000e+00,    1.166667e+01
    1137,    1.400000e+01,    7.000000e+00,    1.166667e+01
    1138,    1.400000e+01,    0.000000e+00,    1.166667e+01
    1139,    7.000000e+00,    1.400000e+01,    1.166667e+01
    1140,    0.000000e+00,    1.400000e+01,    1.166667e+01
    1141,    1.400000e+01,    1.400000e+01,    1.166667e+01
    1142,    0.000000e+00,    2.333333e+01,    2.100000e+01
    1143,    7.000000e+00,    2.333333e+01,    2.100000e+01
    1144,    1.400000e+01,    2.333333e+01,    2.100000e+01
    1145,    0.000000e+00,    2.333333e+01,    2.800000e+01
    1146,    7.000000e+00,    2.333333e+01,    2.800000e+01
    1147,    1.400000e+01,    2.333333e+01,    2.800000e+01
    1148,    0.000000e+00,    2.333333e+01,    3.500000e+01
    1149,    7.000000e+00,    2.333333e+01,    3.500000e+01
    1150,    1.400000e+01,    2.333333e+01,    3.500000e+01
    1151,    2.333333e+01,    7.000000e+00,    2.100000e+01
    1152,    2.333333e+01,    0.000000e+00,    2.100000e+01
    1153,    2.333333e+01,    1.400000e+01,    2.100000e+01
    1154,    2.333333e+01,    7.000000e+00,    2.800000e+01
    1155,    2.333333e+01,    0.000000e+00,    2.800000e+01
    1156,    2.333333e+01,    1.400000e+01,    2.800000e+01
    1157,    2.333333e+01,    7.000000e+00,    3.500000e+01
    1158,    2.333333e+01,    0.000000e+00,    3.500000e+01
    1159,    2.333333e+01,    1.400000e+01,    3.500000e+01
    1160,    2.100000e+01,    1.866667e+01,    1.166667e+01
    1161,    2.100000e+01,    1.633333e+01,    1.166667e+01
    1162,    2.333333e+01,    1.633333e+01,    1.166667e+01
    1163,    2.333333e+01,    1.866667e+01,    1.166667e+01
    1164,    2.333333e+01,    1.633333e+01,    1.400000e+01
    1165,    2.333333e+01,    1.866667e+01,    1.400000e+01
    1166,    2.100000e+01,    1.866667e+01,    1.400000e+01
    1167,    2.100000e+01,    1.633333e+01,    1.400000e+01
    1168,    7.000000e+00,    1.866667e+01,    1.166667e+01
    1169,    7.000000e+00,    1.633333e+01,    1.166667e+01
    1170,    1.400000e+01,    1.633333e+01,    1.166667e+01
    1171,    1.400000e+01,    1.866667e+01,    1.166667e+01
    1172,    1.400000e+01,    1.866667e+01,    1.400000e+01
    1173,    1.400000e+01,    1.633333e+01,    1.400000e+01
    1174,    7.000000e+00,    1.866667e+01,    1.400000e+01
    1175,    7.000000e+00,    1.633333e+01,    1.400000e+01
    1176,    2.100000e+01,    1.633333e+01,    2.100000e+01
    1177,    2.100000e+01,    1.866667e+01,    2.100000e+01
    1178,    2.333333e+01,    1.633333e+01,    2.100000e+01
    1179,    2.333333e+01,    1.866667e+01,    2.100000e+01
    1180,    2.333333e+01,    1.633333e+01,    2.800000e+01
    1181,    2.333333e+01,    1.866667e+01,    2.800000e+01
    1182,    2.100000e+01,    1.633333e+01,    2.800000e+01
    1183,    2.100000e+01,    1.866667e+01,    2.800000e+01
    1184,    0.000000e+00,    1.633333e+01,    1.166667e+01
    1185,    0.000000e+00,    1.866667e+01,    1.166667e+01
    1186,    0.000000e+00,    1.633333e+01,    1.400000e+01
    1187,    0.000000e+00,    1.866667e+01,    1.400000e+01
    1188,    2.333333e+01,    1.633333e+01,    3.500000e+01
    1189,    2.333333e+01,    1.866667e+01,    3.500000e+01
    1190,    2.100000e+01,    1.866667e+01,    3.500000e+01
    1191,    2.100000e+01,    1.633333e+01,    3.500000e+01
    1192,    2.566667e+01,    1.633333e+01,    2.100000e+01
    1193,    2.566667e+01,    1.866667e+01,    2.100000e+01
    1194,    2.566667e+01,    1.633333e+01,    2.800000e+01
    1195,    2.566667e+01,    1.866667e+01,    2.800000e+01
    1196,    2.566667e+01,    1.633333e+01,    3.500000e+01
    1197,    2.566667e+01,    1.866667e+01,    3.500000e+01
    1198,    7.000000e+00,    1.866667e+01,    9.333333e+00
    1199,    7.000000e+00,    1.633333e+01,    9.333333e+00
    1200,    0.000000e+00,    1.866667e+01,    9.333333e+00
    1201,    0.000000e+00,    1.633333e+01,    9.333333e+00
    1202,    2.566667e+01,    1.633333e+01,    1.400000e+01
    1203,    2.566667e+01,    1.866667e+01,    1.400000e+01
    1204,    2.566667e+01,    1.633333e+01,    9.333333e+00
    1205,    2.566667e+01,    1.866667e+01,    9.333333e+00
    1206,    1.400000e+01,    1.633333e+01,    9.333333e+00
    1207,    1.400000e+01,    1.866667e+01,    9.333333e+00
    1208,    2.100000e+01,    1.866667e+01,    9.333333e+00
    1209,    2.100000e+01,    1.633333e+01,    9.333333e+00
    1210,    1.633333e+01,    2.100000e+01,    1.166667e+01
    1211,    1.866667e+01,    2.100000e+01,    1.166667e+01
    1212,    1.866667e+01,    2.333333e+01,    1.166667e+01
    1213,    1.633333e+01,    2.333333e+01,    1.166667e+01
    1214,    1.866667e+01,    2.333333e+01,    1.400000e+01
    1215,    1.633333e+01,    2.333333e+01,    1.400000e+01
    1216,    1.633333e+01,    2.100000e+01,    1.400000e+01
    1217,    1.866667e+01,    2.100000e+01,    1.400000e+01
    1218,    1.866667e+01,    2.333333e+01,    2.100000e+01
    1219,    1.633333e+01,    2.333333e+01,    2.100000e+01
    1220,    1.866667e+01,    2.100000e+01,    2.100000e+01
    1221,    1.633333e+01,    2.100000e+01,    2.100000e+01
    1222,    1.633333e+01,    1.866667e+01,    1.166667e+01
    1223,    1.866667e+01,    1.866667e+01,    1.166667e+01
    1224,    1.633333e+01,    1.866667e+01,    1.400000e+01
    1225,    1.866667e+01,    1.866667e+01,    1.400000e+01
    1226,    1.633333e+01,    1.633333e+01,    1.400000e+01
    1227,    1.866667e+01,    1.633333e+01,    1.400000e+01
    1228,    1.633333e+01,    1.633333e+01,    1.166667e+01
    1229,    1.866667e+01,    1.633333e+01,    1.166667e+01
    1230,    1.633333e+01,    7.000000e+00,    1.166667e+01
    1231,    1.866667e+01,    7.000000e+00,    1.166667e+01
    1232,    1.866667e+01,    1.400000e+01,    1.166667e+01
    1233,    1.633333e+01,    1.400000e+01,    1.166667e+01
    1234,    1.866667e+01,    1.400000e+01,    1.400000e+01
    1235,    1.633333e+01,    1.400000e+01,    1.400000e+01
    1236,    1.866667e+01,    7.000000e+00,    1.400000e+01
    1237,    1.633333e+01,    7.000000e+00,    1.400000e+01
    1238,    1.866667e+01,    2.100000e+01,    2.800000e+01
    1239,    1.633333e+01,    2.100000e+01,    2.800000e+01
    1240,    1.866667e+01,    2.333333e+01,    2.800000e+01
    1241,    1.633333e+01,    2.333333e+01,    2.800000e+01
    1242,    1.866667e+01,    2.333333e+01,    3.500000e+01
    1243,    1.633333e+01,    2.333333e+01,    3.500000e+01
    1244,    1.633333e+01,    2.100000e+01,    3.500000e+01
    1245,    1.866667e+01,    2.100000e+01,    3.500000e+01
    1246,    1.633333e+01,    0.000000e+00,    1.166667e+01
    1247,    1.866667e+01,    0.000000e+00,    1.166667e+01
    1248,    1.866667e+01,    0.000000e+00,    1.400000e+01
    1249,    1.633333e+01,    0.000000e+00,    1.400000e+01
    1250,    1.633333e+01,    1.866667e+01,    1.050000e+01
    1251,    1.866667e+01,    1.866667e+01,    1.050000e+01
    1252,    1.633333e+01,    1.633333e+01,    1.050000e+01
    1253,    1.866667e+01,    1.633333e+01,    1.050000e+01
    1254,    1.633333e+01,    7.000000e+00,    9.333333e+00
    1255,    1.866667e+01,    7.000000e+00,    9.333333e+00
    1256,    1.633333e+01,    1.400000e+01,    9.333333e+00
    1257,    1.866667e+01,    1.400000e+01,    9.333333e+00
    1258,    1.866667e+01,    2.566667e+01,    1.400000e+01
    1259,    1.633333e+01,    2.566667e+01,    1.400000e+01
    1260,    1.866667e+01,    2.566667e+01,    2.100000e+01
    1261,    1.633333e+01,    2.566667e+01,    2.100000e+01
    1262,    1.866667e+01,    2.566667e+01,    2.800000e+01
    1263,    1.633333e+01,    2.566667e+01,    2.800000e+01
    1264,    1.866667e+01,    2.566667e+01,    3.500000e+01
    1265,    1.633333e+01,    2.566667e+01,    3.500000e+01
    1266,    1.866667e+01,    2.566667e+01,    9.333333e+00
    1267,    1.633333e+01,    2.566667e+01,    9.333333e+00
    1268,    1.633333e+01,    0.000000e+00,    9.333333e+00
    1269,    1.866667e+01,    0.000000e+00,    9.333333e+00
    1270,    1.633333e+01,    2.100000e+01,    9.333333e+00
    1271,    1.866667e+01,    2.100000e+01,    9.333333e+00
    1272,    2.100000e+01,    1.866667e+01,    1.633333e+01
    1273,    2.100000e+01,    1.866667e+01,    1.866667e+01
    1274,    2.333333e+01,    1.866667e+01,    1.633333e+01
    1275,    2.333333e+01,    1.866667e+01,    1.866667e+01
    1276,    2.333333e+01,    1.633333e+01,    1.633333e+01
    1277,    2.333333e+01,    1.633333e+01,    1.866667e+01
    1278,    2.100000e+01,    1.633333e+01,    1.633333e+01
    1279,    2.100000e+01,    1.633333e+01,    1.866667e+01
    1280,    2.333333e+01,    7.000000e+00,    1.866667e+01
    1281,    2.333333e+01,    7.000000e+00,    1.633333e+01
    1282,    2.100000e+01,    7.000000e+00,    1.866667e+01
    1283,    2.100000e+01,    7.000000e+00,    1.633333e+01
    1284,    2.100000e+01,    1.400000e+01,    1.866667e+01
    1285,    2.100000e+01,    1.400000e+01,    1.633333e+01
    1286,    2.333333e+01,    1.400000e+01,    1.866667e+01
    1287,    2.333333e+01,    1.400000e+01,    1.633333e+01
    1288,    2.333333e+01,    0.000000e+00,    1.633333e+01
    1289,    2.333333e+01,    0.000000e+00,    1.866667e+01
    1290,    2.100000e+01,    0.000000e+00,    1.866667e+01
    1291,    2.100000e+01,    0.000000e+00,    1.633333e+01
    1292,    2.100000e+01,    2.100000e+01,    1.866667e+01
    1293,    2.100000e+01,    2.100000e+01,    1.633333e+01
    1294,    2.333333e+01,    2.100000e+01,    1.633333e+01
    1295,    2.333333e+01,    2.100000e+01,    1.866667e+01
    1296,    1.866667e+01,    2.100000e+01,    1.633333e+01
    1297,    1.866667e+01,    2.100000e+01,    1.866667e+01
    1298,    1.866667e+01,    2.333333e+01,    1.633333e+01
    1299,    1.866667e+01,    2.333333e+01,    1.866667e+01
    1300,    2.100000e+01,    2.333333e+01,    1.633333e+01
    1301,    2.100000e+01,    2.333333e+01,    1.866667e+01
    1302,    1.633333e+01,    2.100000e+01,    1.633333e+01
    1303,    1.633333e+01,    2.100000e+01,    1.866667e+01
    1304,    1.633333e+01,    2.333333e+01,    1.633333e+01
    1305,    1.633333e+01,    2.333333e+01,    1.866667e+01
    1306,    7.000000e+00,    2.100000e+01,    1.866667e+01
    1307,    7.000000e+00,    2.100000e+01,    1.633333e+01
    1308,    0.000000e+00,    2.100000e+01,    1.633333e+01
    1309,    0.000000e+00,    2.100000e+01,    1.866667e+01
    1310,    0.000000e+00,    2.333333e+01,    1.866667e+01
    1311,    0.000000e+00,    2.333333e+01,    1.633333e+01
    1312,    7.000000e+00,    2.333333e+01,    1.866667e+01
    1313,    7.000000e+00,    2.333333e+01,    1.633333e+01
    1314,    1.400000e+01,    2.100000e+01,    1.866667e+01
    1315,    1.400000e+01,    2.100000e+01,    1.633333e+01
    1316,    1.400000e+01,    2.333333e+01,    1.633333e+01
    1317,    1.400000e+01,    2.333333e+01,    1.866667e+01
    1318,    2.333333e+01,    2.333333e+01,    1.866667e+01
    1319,    2.333333e+01,    2.333333e+01,    1.633333e+01
    1320,    2.566667e+01,    7.000000e+00,    1.866667e+01
    1321,    2.566667e+01,    7.000000e+00,    1.633333e+01
    1322,    2.566667e+01,    1.400000e+01,    1.866667e+01
    1323,    2.566667e+01,    1.400000e+01,    1.633333e+01
    1324,    2.566667e+01,    2.100000e+01,    1.633333e+01
    1325,    2.566667e+01,    2.100000e+01,    1.866667e+01
    1326,    2.450000e+01,    1.866667e+01,    1.633333e+01
    1327,    2.450000e+01,    1.866667e+01,    1.866667e+01
    1328,    1.866667e+01,    2.450000e+01,    1.633333e+01
    1329,    1.866667e+01,    2.450000e+01,    1.866667e+01
    1330,    2.100000e+01,    2.566667e+01,    1.633333e+01
    1331,    2.100000e+01,    2.566667e+01,    1.866667e+01
    1332,    7.000000e+00,    2.566667e+01,    1.866667e+01
    1333,    7.000000e+00,    2.566667e+01,    1.633333e+01
    1334,    0.000000e+00,    2.566667e+01,    1.866667e+01
    1335,    0.000000e+00,    2.566667e+01,    1.633333e+01
    1336,    1.400000e+01,    2.566667e+01,    1.633333e+01
    1337,    1.400000e+01,    2.566667e+01,    1.866667e+01
    1338,    1.633333e+01,    2.450000e+01,    1.633333e+01
    1339,    1.633333e+01,    2.450000e+01,    1.866667e+01
    1340,    2.566667e+01,    2.566667e+01,    1.866667e+01
    1341,    2.566667e+01,    2.566667e+01,    1.633333e+01
    1342,    2.566667e+01,    0.000000e+00,    1.633333e+01
    1343,    2.566667e+01,    0.000000e+00,    1.866667e+01
    1344,    2.450000e+01,    1.633333e+01,    1.633333e+01
    1345,    2.450000e+01,    1.633333e+01,    1.866667e+01
    1346,    1.866667e+01,    2.333333e+00,    1.400000e+01
    1347,    1.866667e+01,    4.666667e+00,    1.400000e+01
    1348,    1.866667e+01,    2.333333e+00,    1.166667e+01
    1349,    1.866667e+01,    4.666667e+00,    1.166667e+01
    1350,    2.100000e+01,    2.333333e+00,    1.166667e+01
    1351,    2.100000e+01,    4.666667e+00,    1.166667e+01
    1352,    2.100000e+01,    4.666667e+00,    1.400000e+01
    1353,    2.100000e+01,    2.333333e+00,    1.400000e+01
    1354,    2.333333e+01,    4.666667e+00,    1.633333e+01
    1355,    2.333333e+01,    2.333333e+00,    1.633333e+01
    1356,    2.100000e+01,    4.666667e+00,    1.633333e+01
    1357,    2.100000e+01,    2.333333e+00,    1.633333e+01
    1358,    2.333333e+01,    4.666667e+00,    1.400000e+01
    1359,    2.333333e+01,    2.333333e+00,    1.400000e+01
    1360,    1.633333e+01,    2.333333e+00,    1.400000e+01
    1361,    1.633333e+01,    4.666667e+00,    1.400000e+01
    1362,    1.633333e+01,    2.333333e+00,    1.166667e+01
    1363,    1.633333e+01,    4.666667e+00,    1.166667e+01
    1364,    0.000000e+00,    2.333333e+00,    1.166667e+01
    1365,    0.000000e+00,    4.666667e+00,    1.166667e+01
    1366,    7.000000e+00,    2.333333e+00,    1.166667e+01
    1367,    7.000000e+00,    4.666667e+00,    1.166667e+01
    1368,    7.000000e+00,    4.666667e+00,    1.400000e+01
    1369,    7.000000e+00,    2.333333e+00,    1.400000e+01
    1370,    0.000000e+00,    2.333333e+00,    1.400000e+01
    1371,    0.000000e+00,    4.666667e+00,    1.400000e+01
    1372,    1.400000e+01,    2.333333e+00,    1.166667e+01
    1373,    1.400000e+01,    4.666667e+00,    1.166667e+01
    1374,    1.400000e+01,    4.666667e+00,    1.400000e+01
    1375,    1.400000e+01,    2.333333e+00,    1.400000e+01
    1376,    2.333333e+01,    4.666667e+00,    2.100000e+01
    1377,    2.333333e+01,    2.333333e+00,    2.100000e+01
    1378,    2.100000e+01,    2.333333e+00,    2.100000e+01
    1379,    2.100000e+01,    4.666667e+00,    2.100000e+01
    1380,    2.100000e+01,    4.666667e+00,    1.866667e+01
    1381,    2.100000e+01,    2.333333e+00,    1.866667e+01
    1382,    2.333333e+01,    4.666667e+00,    1.866667e+01
    1383,    2.333333e+01,    2.333333e+00,    1.866667e+01
    1384,    2.333333e+01,    2.333333e+00,    2.800000e+01
    1385,    2.333333e+01,    4.666667e+00,    2.800000e+01
    1386,    2.100000e+01,    2.333333e+00,    2.800000e+01
    1387,    2.100000e+01,    4.666667e+00,    2.800000e+01
    1388,    2.333333e+01,    2.333333e+00,    3.500000e+01
    1389,    2.333333e+01,    4.666667e+00,    3.500000e+01
    1390,    2.100000e+01,    4.666667e+00,    3.500000e+01
    1391,    2.100000e+01,    2.333333e+00,    3.500000e+01
    1392,    2.333333e+01,    2.333333e+00,    1.166667e+01
    1393,    2.333333e+01,    4.666667e+00,    1.166667e+01
    1394,    2.450000e+01,    4.666667e+00,    1.633333e+01
    1395,    2.450000e+01,    2.333333e+00,    1.633333e+01
    1396,    2.566667e+01,    4.666667e+00,    1.400000e+01
    1397,    2.566667e+01,    2.333333e+00,    1.400000e+01
    1398,    2.566667e+01,    4.666667e+00,    2.100000e+01
    1399,    2.566667e+01,    2.333333e+00,    2.100000e+01
    1400,    2.450000e+01,    4.666667e+00,    1.866667e+01
    1401,    2.450000e+01,    2.333333e+00,    1.866667e+01
    1402,    2.566667e+01,    2.333333e+00,    2.800000e+01
    1403,    2.566667e+01,    4.666667e+00,    2.800000e+01
    1404,    2.566667e+01,    2.333333e+00,    3.500000e+01
    1405,    2.566667e+01,    4.666667e+00,    3.500000e+01
    1406,    1.633333e+01,    2.333333e+00,    1.050000e+01
    1407,    1.633333e+01,    4.666667e+00,    1.050000e+01
    1408,    1.866667e+01,    2.333333e+00,    1.050000e+01
    1409,    1.866667e+01,    4.666667e+00,    1.050000e+01
    1410,    7.000000e+00,    2.333333e+00,    9.333333e+00
    1411,    7.000000e+00,    4.666667e+00,    9.333333e+00
    1412,    0.000000e+00,    2.333333e+00,    9.333333e+00
    1413,    0.000000e+00,    4.666667e+00,    9.333333e+00
    1414,    1.400000e+01,    2.333333e+00,    9.333333e+00
    1415,    1.400000e+01,    4.666667e+00,    9.333333e+00
    1416,    2.100000e+01,    2.333333e+00,    9.333333e+00
    1417,    2.100000e+01,    4.666667e+00,    9.333333e+00
    1418,    2.566667e+01,    2.333333e+00,    9.333333e+00
    1419,    2.566667e+01,    4.666667e+00,    9.333333e+00
    1420,    2.333333e+00,    2.100000e+01,    1.166667e+01
    1421,    4.666667e+00,    2.100000e+01,    1.166667e+01
    1422,    2.333333e+00,    2.100000e+01,    1.400000e+01
    1423,    4.666667e+00,    2.100000e+01,    1.400000e+01
    1424,    2.333333e+00,    1.866667e+01,    1.400000e+01
    1425,    4.666667e+00,    1.866667e+01,    1.400000e+01
    1426,    2.333333e+00,    1.866667e+01,    1.166667e+01
    1427,    4.666667e+00,    1.866667e+01,    1.166667e+01
    1428,    2.333333e+00,    2.333333e+01,    1.633333e+01
    1429,    4.666667e+00,    2.333333e+01,    1.633333e+01
    1430,    2.333333e+00,    2.100000e+01,    1.633333e+01
    1431,    4.666667e+00,    2.100000e+01,    1.633333e+01
    1432,    2.333333e+00,    2.333333e+01,    1.400000e+01
    1433,    4.666667e+00,    2.333333e+01,    1.400000e+01
    1434,    2.333333e+00,    1.633333e+01,    1.166667e+01
    1435,    4.666667e+00,    1.633333e+01,    1.166667e+01
    1436,    2.333333e+00,    1.633333e+01,    1.400000e+01
    1437,    4.666667e+00,    1.633333e+01,    1.400000e+01
    1438,    4.666667e+00,    1.400000e+01,    1.400000e+01
    1439,    2.333333e+00,    1.400000e+01,    1.400000e+01
    1440,    2.333333e+00,    1.400000e+01,    1.166667e+01
    1441,    4.666667e+00,    1.400000e+01,    1.166667e+01
    1442,    2.333333e+00,    7.000000e+00,    1.166667e+01
    1443,    4.666667e+00,    7.000000e+00,    1.166667e+01
    1444,    4.666667e+00,    7.000000e+00,    1.400000e+01
    1445,    2.333333e+00,    7.000000e+00,    1.400000e+01
    1446,    2.333333e+00,    4.666667e+00,    1.400000e+01
    1447,    4.666667e+00,    4.666667e+00,    1.400000e+01
    1448,    2.333333e+00,    4.666667e+00,    1.166667e+01
    1449,    4.666667e+00,    4.666667e+00,    1.166667e+01
    1450,    2.333333e+00,    2.333333e+00,    1.400000e+01
    1451,    4.666667e+00,    2.333333e+00,    1.400000e+01
    1452,    2.333333e+00,    2.333333e+00,    1.166667e+01
    1453,    4.666667e+00,    2.333333e+00,    1.166667e+01
    1454,    4.666667e+00,    0.000000e+00,    1.400000e+01
    1455,    2.333333e+00,    0.000000e+00,    1.400000e+01
    1456,    2.333333e+00,    0.000000e+00,    1.166667e+01
    1457,    4.666667e+00,    0.000000e+00,    1.166667e+01
    1458,    2.333333e+00,    2.333333e+01,    2.100000e+01
    1459,    4.666667e+00,    2.333333e+01,    2.100000e+01
    1460,    4.666667e+00,    2.100000e+01,    2.100000e+01
    1461,    2.333333e+00,    2.100000e+01,    2.100000e+01
    1462,    2.333333e+00,    2.100000e+01,    1.866667e+01
    1463,    4.666667e+00,    2.100000e+01,    1.866667e+01
    1464,    2.333333e+00,    2.333333e+01,    1.866667e+01
    1465,    4.666667e+00,    2.333333e+01,    1.866667e+01
    1466,    4.666667e+00,    2.100000e+01,    2.800000e+01
    1467,    2.333333e+00,    2.100000e+01,    2.800000e+01
    1468,    4.666667e+00,    2.333333e+01,    2.800000e+01
    1469,    2.333333e+00,    2.333333e+01,    2.800000e+01
    1470,    4.666667e+00,    2.333333e+01,    3.500000e+01
    1471,    2.333333e+00,    2.333333e+01,    3.500000e+01
    1472,    2.333333e+00,    2.100000e+01,    3.500000e+01
    1473,    4.666667e+00,    2.100000e+01,    3.500000e+01
    1474,    4.666667e+00,    2.333333e+01,    1.166667e+01
    1475,    2.333333e+00,    2.333333e+01,    1.166667e+01
    1476,    2.333333e+00,    2.450000e+01,    1.633333e+01
    1477,    4.666667e+00,    2.450000e+01,    1.633333e+01
    1478,    2.333333e+00,    2.566667e+01,    1.400000e+01
    1479,    4.666667e+00,    2.566667e+01,    1.400000e+01
    1480,    2.333333e+00,    2.566667e+01,    2.100000e+01
    1481,    4.666667e+00,    2.566667e+01,    2.100000e+01
    1482,    2.333333e+00,    2.450000e+01,    1.866667e+01
    1483,    4.666667e+00,    2.450000e+01,    1.866667e+01
    1484,    4.666667e+00,    2.566667e+01,    2.800000e+01
    1485,    2.333333e+00,    2.566667e+01,    2.800000e+01
    1486,    4.666667e+00,    2.566667e+01,    3.500000e+01
    1487,    2.333333e+00,    2.566667e+01,    3.500000e+01
    1488,    2.333333e+00,    2.333333e+00,    1.050000e+01
    1489,    4.666667e+00,    2.333333e+00,    1.050000e+01
    1490,    2.333333e+00,    0.000000e+00,    9.333333e+00
    1491,    4.666667e+00,    0.000000e+00,    9.333333e+00
    1492,    2.333333e+00,    1.633333e+01,    1.050000e+01
    1493,    4.666667e+00,    1.633333e+01,    1.050000e+01
    1494,    2.333333e+00,    1.400000e+01,    9.333333e+00
    1495,    4.666667e+00,    1.400000e+01,    9.333333e+00
    1496,    2.333333e+00,    1.866667e+01,    1.050000e+01
    1497,    4.666667e+00,    1.866667e+01,    1.050000e+01
    1498,    2.333333e+00,    4.666667e+00,    1.050000e+01
    1499,    4.666667e+00,    4.666667e+00,    1.050000e+01
    1500,    2.333333e+00,    7.000000e+00,    9.333333e+00
    1501,    4.666667e+00,    7.000000e+00,    9.333333e+00
    1502,    4.666667e+00,    2.566667e+01,    9.333333e+00
    1503,    2.333333e+00,    2.566667e+01,    9.333333e+00
    1504,    2.333333e+00,    2.100000e+01,    9.333333e+00
    1505,    4.666667e+00,    2.100000e+01,    9.333333e+00
    1506,    1.633333e+01,    9.333333e+00,    1.400000e+01
    1507,    1.633333e+01,    1.166667e+01,    1.400000e+01
    1508,    1.633333e+01,    9.333333e+00,    1.166667e+01
    1509,    1.633333e+01,    1.166667e+01,    1.166667e+01
    1510,    1.866667e+01,    9.333333e+00,    1.166667e+01
    1511,    1.866667e+01,    1.166667e+01,    1.166667e+01
    1512,    1.866667e+01,    9.333333e+00,    1.400000e+01
    1513,    1.866667e+01,    1.166667e+01,    1.400000e+01
    1514,    2.100000e+01,    1.166667e+01,    1.166667e+01
    1515,    2.100000e+01,    9.333333e+00,    1.166667e+01
    1516,    2.333333e+01,    9.333333e+00,    1.166667e+01
    1517,    2.333333e+01,    1.166667e+01,    1.166667e+01
    1518,    2.333333e+01,    9.333333e+00,    1.400000e+01
    1519,    2.333333e+01,    1.166667e+01,    1.400000e+01
    1520,    2.100000e+01,    1.166667e+01,    1.400000e+01
    1521,    2.100000e+01,    9.333333e+00,    1.400000e+01
    1522,    2.333333e+01,    1.166667e+01,    1.633333e+01
    1523,    2.333333e+01,    9.333333e+00,    1.633333e+01
    1524,    2.100000e+01,    1.166667e+01,    1.633333e+01
    1525,    2.100000e+01,    9.333333e+00,    1.633333e+01
    1526,    2.333333e+01,    1.166667e+01,    2.100000e+01
    1527,    2.333333e+01,    9.333333e+00,    2.100000e+01
    1528,    2.100000e+01,    9.333333e+00,    2.100000e+01
    1529,    2.100000e+01,    1.166667e+01,    2.100000e+01
    1530,    2.100000e+01,    1.166667e+01,    1.866667e+01
    1531,    2.100000e+01,    9.333333e+00,    1.866667e+01
    1532,    2.333333e+01,    1.166667e+01,    1.866667e+01
    1533,    2.333333e+01,    9.333333e+00,    1.866667e+01
    1534,    2.100000e+01,    9.333333e+00,    2.800000e+01
    1535,    2.100000e+01,    1.166667e+01,    2.800000e+01
    1536,    2.333333e+01,    9.333333e+00,    2.800000e+01
    1537,    2.333333e+01,    1.166667e+01,    2.800000e+01
    1538,    2.333333e+01,    9.333333e+00,    3.500000e+01
    1539,    2.333333e+01,    1.166667e+01,    3.500000e+01
    1540,    2.100000e+01,    1.166667e+01,    3.500000e+01
    1541,    2.100000e+01,    9.333333e+00,    3.500000e+01
    1542,    4.666667e+00,    9.333333e+00,    1.400000e+01
    1543,    4.666667e+00,    1.166667e+01,    1.400000e+01
    1544,    4.666667e+00,    9.333333e+00,    1.166667e+01
    1545,    4.666667e+00,    1.166667e+01,    1.166667e+01
    1546,    7.000000e+00,    9.333333e+00,    1.166667e+01
    1547,    7.000000e+00,    1.166667e+01,    1.166667e+01
    1548,    7.000000e+00,    1.166667e+01,    1.400000e+01
    1549,    7.000000e+00,    9.333333e+00,    1.400000e+01
    1550,    0.000000e+00,    9.333333e+00,    1.400000e+01
    1551,    0.000000e+00,    1.166667e+01,    1.400000e+01
    1552,    0.000000e+00,    9.333333e+00,    1.166667e+01
    1553,    0.000000e+00,    1.166667e+01,    1.166667e+01
    1554,    2.333333e+00,    9.333333e+00,    1.166667e+01
    1555,    2.333333e+00,    1.166667e+01,    1.166667e+01
    1556,    2.333333e+00,    9.333333e+00,    1.400000e+01
    1557,    2.333333e+00,    1.166667e+01,    1.400000e+01
    1558,    1.400000e+01,    9.333333e+00,    1.166667e+01
    1559,    1.400000e+01,    1.166667e+01,    1.166667e+01
    1560,    1.400000e+01,    1.166667e+01,    1.400000e+01
    1561,    1.400000e+01,    9.333333e+00,    1.400000e+01
    1562,    2.566667e+01,    9.333333e+00,    9.333333e+00
    1563,    2.566667e+01,    1.166667e+01,    9.333333e+00
    1564,    2.100000e+01,    9.333333e+00,    9.333333e+00
    1565,    2.100000e+01,    1.166667e+01,    9.333333e+00
    1566,    1.400000e+01,    9.333333e+00,    9.333333e+00
    1567,    1.400000e+01,    1.166667e+01,    9.333333e+00
    1568,    1.633333e+01,    9.333333e+00,    1.050000e+01
    1569,    1.633333e+01,    1.166667e+01,    1.050000e+01
    1570,    4.666667e+00,    9.333333e+00,    1.050000e+01
    1571,    4.666667e+00,    1.166667e+01,    1.050000e+01
    1572,    7.000000e+00,    9.333333e+00,    9.333333e+00
    1573,    7.000000e+00,    1.166667e+01,    9.333333e+00
    1574,    0.000000e+00,    9.333333e+00,    9.333333e+00
    1575,    0.000000e+00,    1.166667e+01,    9.333333e+00
    1576,    2.333333e+00,    9.333333e+00,    1.050000e+01
    1577,    2.333333e+00,    1.166667e+01,    1.050000e+01
    1578,    2.566667e+01,    9.333333e+00,    1.400000e+01
    1579,    2.566667e+01,    1.166667e+01,    1.400000e+01
    1580,    2.566667e+01,    1.166667e+01,    2.100000e+01
    1581,    2.566667e+01,    9.333333e+00,    2.100000e+01
    1582,    2.450000e+01,    1.166667e+01,    1.866667e+01
    1583,    2.450000e+01,    9.333333e+00,    1.866667e+01
    1584,    2.566667e+01,    9.333333e+00,    2.800000e+01
    1585,    2.566667e+01,    1.166667e+01,    2.800000e+01
    1586,    2.566667e+01,    9.333333e+00,    3.500000e+01
    1587,    2.566667e+01,    1.166667e+01,    3.500000e+01
    1588,    2.450000e+01,    1.166667e+01,    1.633333e+01
    1589,    2.450000e+01,    9.333333e+00,    1.633333e+01
    1590,    1.866667e+01,    9.333333e+00,    1.050000e+01
    1591,    1.866667e+01,    1.166667e+01,    1.050000e+01
    1592,    9.333333e+00,    2.333333e+01,    1.866667e+01
    1593,    1.166667e+01,    2.333333e+01,    1.866667e+01
    1594,    9.333333e+00,    2.100000e+01,    1.866667e+01
    1595,    1.166667e+01,    2.100000e+01,    1.866667e+01
    1596,    9.333333e+00,    2.100000e+01,    1.633333e+01
    1597,    1.166667e+01,    2.100000e+01,    1.633333e+01
    1598,    9.333333e+00,    2.333333e+01,    1.633333e+01
    1599,    1.166667e+01,    2.333333e+01,    1.633333e+01
    1600,    9.333333e+00,    2.100000e+01,    1.166667e+01
    1601,    1.166667e+01,    2.100000e+01,    1.166667e+01
    1602,    1.166667e+01,    2.333333e+01,    1.166667e+01
    1603,    9.333333e+00,    2.333333e+01,    1.166667e+01
    1604,    1.166667e+01,    2.333333e+01,    1.400000e+01
    1605,    9.333333e+00,    2.333333e+01,    1.400000e+01
    1606,    9.333333e+00,    2.100000e+01,    1.400000e+01
    1607,    1.166667e+01,    2.100000e+01,    1.400000e+01
    1608,    9.333333e+00,    1.866667e+01,    1.166667e+01
    1609,    1.166667e+01,    1.866667e+01,    1.166667e+01
    1610,    9.333333e+00,    1.866667e+01,    1.400000e+01
    1611,    1.166667e+01,    1.866667e+01,    1.400000e+01
    1612,    9.333333e+00,    1.633333e+01,    1.400000e+01
    1613,    1.166667e+01,    1.633333e+01,    1.400000e+01
    1614,    9.333333e+00,    1.633333e+01,    1.166667e+01
    1615,    1.166667e+01,    1.633333e+01,    1.166667e+01
    1616,    9.333333e+00,    1.400000e+01,    1.166667e+01
    1617,    1.166667e+01,    1.400000e+01,    1.166667e+01
    1618,    1.166667e+01,    1.400000e+01,    1.400000e+01
    1619,    9.333333e+00,    1.400000e+01,    1.400000e+01
    1620,    9.333333e+00,    1.166667e+01,    1.400000e+01
    1621,    1.166667e+01,    1.166667e+01,    1.400000e+01
    1622,    9.333333e+00,    1.166667e+01,    1.166667e+01
    1623,    1.166667e+01,    1.166667e+01,    1.166667e+01
    1624,    9.333333e+00,    9.333333e+00,    1.166667e+01
    1625,    1.166667e+01,    9.333333e+00,    1.166667e+01
    1626,    9.333333e+00,    9.333333e+00,    1.400000e+01
    1627,    1.166667e+01,    9.333333e+00,    1.400000e+01
    1628,    1.166667e+01,    7.000000e+00,    1.400000e+01
    1629,    9.333333e+00,    7.000000e+00,    1.400000e+01
    1630,    9.333333e+00,    7.000000e+00,    1.166667e+01
    1631,    1.166667e+01,    7.000000e+00,    1.166667e+01
    1632,    9.333333e+00,    2.333333e+01,    2.100000e+01
    1633,    1.166667e+01,    2.333333e+01,    2.100000e+01
    1634,    1.166667e+01,    2.100000e+01,    2.100000e+01
    1635,    9.333333e+00,    2.100000e+01,    2.100000e+01
    1636,    1.166667e+01,    2.333333e+01,    2.800000e+01
    1637,    9.333333e+00,    2.333333e+01,    2.800000e+01
    1638,    1.166667e+01,    2.100000e+01,    2.800000e+01
    1639,    9.333333e+00,    2.100000e+01,    2.800000e+01
    1640,    1.166667e+01,    2.333333e+01,    3.500000e+01
    1641,    9.333333e+00,    2.333333e+01,    3.500000e+01
    1642,    9.333333e+00,    2.100000e+01,    3.500000e+01
    1643,    1.166667e+01,    2.100000e+01,    3.500000e+01
    1644,    9.333333e+00,    4.666667e+00,    1.166667e+01
    1645,    1.166667e+01,    4.666667e+00,    1.166667e+01
    1646,    9.333333e+00,    4.666667e+00,    1.400000e+01
    1647,    1.166667e+01,    4.666667e+00,    1.400000e+01
    1648,    9.333333e+00,    2.333333e+00,    1.400000e+01
    1649,    1.166667e+01,    2.333333e+00,    1.400000e+01
    1650,    9.333333e+00,    2.333333e+00,    1.166667e+01
    1651,    1.166667e+01,    2.333333e+00,    1.166667e+01
    1652,    1.166667e+01,    0.000000e+00,    1.400000e+01
    1653,    9.333333e+00,    0.000000e+00,    1.400000e+01
    1654,    9.333333e+00,    0.000000e+00,    1.166667e+01
    1655,    1.166667e+01,    0.000000e+00,    1.166667e+01
    1656,    9.333333e+00,    1.866667e+01,    1.050000e+01
    1657,    1.166667e+01,    1.866667e+01,    1.050000e+01
    1658,    9.333333e+00,    1.633333e+01,    1.050000e+01
    1659,    1.166667e+01,    1.633333e+01,    1.050000e+01
    1660,    9.333333e+00,    1.400000e+01,    9.333333e+00
    1661,    1.166667e+01,    1.400000e+01,    9.333333e+00
    1662,    9.333333e+00,    1.166667e+01,    1.050000e+01
    1663,    1.166667e+01,    1.166667e+01,    1.050000e+01
    1664,    9.333333e+00,    9.333333e+00,    1.050000e+01
    1665,    1.166667e+01,    9.333333e+00,    1.050000e+01
    1666,    9.333333e+00,    7.000000e+00,    9.333333e+00
    1667,    1.166667e+01,    7.000000e+00,    9.333333e+00
    1668,    9.333333e+00,    4.666667e+00,    1.050000e+01
    1669,    1.166667e+01,    4.666667e+00,    1.050000e+01
    1670,    9.333333e+00,    2.333333e+00,    1.050000e+01
    1671,    1.166667e+01,    2.333333e+00,    1.050000e+01
    1672,    9.333333e+00,    0.000000e+00,    9.333333e+00
    1673,    1.166667e+01,    0.000000e+00,    9.333333e+00
    1674,    1.166667e+01,    2.566667e+01,    2.800000e+01
    1675,    9.333333e+00,    2.566667e+01,    2.800000e+01
    1676,    1.166667e+01,    2.566667e+01,    3.500000e+01
    1677,    9.333333e+00,    2.566667e+01,    3.500000e+01
    1678,    9.333333e+00,    2.566667e+01,    2.100000e+01
    1679,    1.166667e+01,    2.566667e+01,    2.100000e+01
    1680,    9.333333e+00,    2.450000e+01,    1.866667e+01
    1681,    1.166667e+01,    2.450000e+01,    1.866667e+01
    1682,    9.333333e+00,    2.100000e+01,    9.333333e+00
    1683,    1.166667e+01,    2.100000e+01,    9.333333e+00
    1684,    9.333333e+00,    2.566667e+01,    9.333333e+00
    1685,    1.166667e+01,    2.566667e+01,    9.333333e+00
    1686,    1.166667e+01,    2.566667e+01,    1.400000e+01
    1687,    9.333333e+00,    2.566667e+01,    1.400000e+01
    1688,    9.333333e+00,    2.450000e+01,    1.633333e+01
    1689,    1.166667e+01,    2.450000e+01,    1.633333e+01
    1690,    2.100000e+01,    2.100000e+01,    3.266667e+01
    1691,    2.100000e+01,    2.100000e+01,    3.033333e+01
    1692,    2.333333e+01,    2.100000e+01,    3.033333e+01
    1693,    2.333333e+01,    2.100000e+01,    3.266667e+01
    1694,    2.333333e+01,    1.866667e+01,    3.033333e+01
    1695,    2.333333e+01,    1.866667e+01,    3.266667e+01
    1696,    2.100000e+01,    1.866667e+01,    3.033333e+01
    1697,    2.100000e+01,    1.866667e+01,    3.266667e+01
    1698,    1.866667e+01,    2.100000e+01,    3.033333e+01
    1699,    1.866667e+01,    2.100000e+01,    3.266667e+01
    1700,    1.866667e+01,    2.333333e+01,    3.033333e+01
    1701,    1.866667e+01,    2.333333e+01,    3.266667e+01
    1702,    2.100000e+01,    2.333333e+01,    3.033333e+01
    1703,    2.100000e+01,    2.333333e+01,    3.266667e+01
    1704,    1.633333e+01,    2.100000e+01,    3.033333e+01
    1705,    1.633333e+01,    2.100000e+01,    3.266667e+01
    1706,    1.633333e+01,    2.333333e+01,    3.033333e+01
    1707,    1.633333e+01,    2.333333e+01,    3.266667e+01
    1708,    2.100000e+01,    4.666667e+00,    3.033333e+01
    1709,    2.100000e+01,    4.666667e+00,    3.266667e+01
    1710,    2.333333e+01,    4.666667e+00,    3.033333e+01
    1711,    2.333333e+01,    4.666667e+00,    3.266667e+01
    1712,    2.333333e+01,    2.333333e+00,    3.033333e+01
    1713,    2.333333e+01,    2.333333e+00,    3.266667e+01
    1714,    2.100000e+01,    2.333333e+00,    3.033333e+01
    1715,    2.100000e+01,    2.333333e+00,    3.266667e+01
    1716,    2.333333e+01,    0.000000e+00,    3.033333e+01
    1717,    2.333333e+01,    0.000000e+00,    3.266667e+01
    1718,    2.100000e+01,    0.000000e+00,    3.266667e+01
    1719,    2.100000e+01,    0.000000e+00,    3.033333e+01
    1720,    2.333333e+01,    1.633333e+01,    3.033333e+01
    1721,    2.333333e+01,    1.633333e+01,    3.266667e+01
    1722,    2.100000e+01,    1.633333e+01,    3.033333e+01
    1723,    2.100000e+01,    1.633333e+01,    3.266667e+01
    1724,    2.333333e+01,    1.400000e+01,    3.033333e+01
    1725,    2.333333e+01,    1.400000e+01,    3.266667e+01
    1726,    2.100000e+01,    1.400000e+01,    3.266667e+01
    1727,    2.100000e+01,    1.400000e+01,    3.033333e+01
    1728,    2.333333e+01,    1.166667e+01,    3.033333e+01
    1729,    2.333333e+01,    1.166667e+01,    3.266667e+01
    1730,    2.100000e+01,    1.166667e+01,    3.033333e+01
    1731,    2.100000e+01,    1.166667e+01,    3.266667e+01
    1732,    2.333333e+01,    9.333333e+00,    3.033333e+01
    1733,    2.333333e+01,    9.333333e+00,    3.266667e+01
    1734,    2.100000e+01,    9.333333e+00,    3.033333e+01
    1735,    2.100000e+01,    9.333333e+00,    3.266667e+01
    1736,    2.333333e+01,    7.000000e+00,    3.033333e+01
    1737,    2.333333e+01,    7.000000e+00,    3.266667e+01
    1738,    2.100000e+01,    7.000000e+00,    3.266667e+01
    1739,    2.100000e+01,    7.000000e+00,    3.033333e+01
    1740,    0.000000e+00,    2.100000e+01,    3.033333e+01
    1741,    0.000000e+00,    2.100000e+01,    3.266667e+01
    1742,    0.000000e+00,    2.333333e+01,    3.266667e+01
    1743,    0.000000e+00,    2.333333e+01,    3.033333e+01
    1744,    2.333333e+00,    2.333333e+01,    3.033333e+01
    1745,    2.333333e+00,    2.333333e+01,    3.266667e+01
    1746,    2.333333e+00,    2.100000e+01,    3.033333e+01
    1747,    2.333333e+00,    2.100000e+01,    3.266667e+01
    1748,    1.400000e+01,    2.100000e+01,    3.266667e+01
    1749,    1.400000e+01,    2.100000e+01,    3.033333e+01
    1750,    1.400000e+01,    2.333333e+01,    3.033333e+01
    1751,    1.400000e+01,    2.333333e+01,    3.266667e+01
    1752,    1.166667e+01,    2.100000e+01,    3.033333e+01
    1753,    1.166667e+01,    2.100000e+01,    3.266667e+01
    1754,    1.166667e+01,    2.333333e+01,    3.033333e+01
    1755,    1.166667e+01,    2.333333e+01,    3.266667e+01
    1756,    9.333333e+00,    2.100000e+01,    3.033333e+01
    1757,    9.333333e+00,    2.100000e+01,    3.266667e+01
    1758,    9.333333e+00,    2.333333e+01,    3.033333e+01
    1759,    9.333333e+00,    2.333333e+01,    3.266667e+01
    1760,    7.000000e+00,    2.100000e+01,    3.266667e+01
    1761,    7.000000e+00,    2.100000e+01,    3.033333e+01
    1762,    7.000000e+00,    2.333333e+01,    3.033333e+01
    1763,    7.000000e+00,    2.333333e+01,    3.266667e+01
    1764,    4.666667e+00,    2.100000e+01,    3.033333e+01
    1765,    4.666667e+00,    2.100000e+01,    3.266667e+01
    1766,    4.666667e+00,    2.333333e+01,    3.033333e+01
    1767,    4.666667e+00,    2.333333e+01,    3.266667e+01
    1768,    2.333333e+01,    2.333333e+01,    3.266667e+01
    1769,    2.333333e+01,    2.333333e+01,    3.033333e+01
    1770,    1.866667e+01,    2.450000e+01,    3.033333e+01
    1771,    1.866667e+01,    2.450000e+01,    3.266667e+01
    1772,    2.100000e+01,    2.566667e+01,    3.033333e+01
    1773,    2.100000e+01,    2.566667e+01,    3.266667e+01
    1774,    0.000000e+00,    2.566667e+01,    3.266667e+01
    1775,    0.000000e+00,    2.566667e+01,    3.033333e+01
    1776,    2.333333e+00,    2.450000e+01,    3.266667e+01
    1777,    2.333333e+00,    2.450000e+01,    3.033333e+01
    1778,    4.666667e+00,    2.450000e+01,    3.033333e+01
    1779,    4.666667e+00,    2.450000e+01,    3.266667e+01
    1780,    7.000000e+00,    2.566667e+01,    3.033333e+01
    1781,    7.000000e+00,    2.566667e+01,    3.266667e+01
    1782,    9.333333e+00,    2.450000e+01,    3.033333e+01
    1783,    9.333333e+00,    2.450000e+01,    3.266667e+01
    1784,    1.166667e+01,    2.450000e+01,    3.033333e+01
    1785,    1.166667e+01,    2.450000e+01,    3.266667e+01
    1786,    1.400000e+01,    2.566667e+01,    3.033333e+01
    1787,    1.400000e+01,    2.566667e+01,    3.266667e+01
    1788,    1.633333e+01,    2.450000e+01,    3.033333e+01
    1789,    1.633333e+01,    2.450000e+01,    3.266667e+01
    1790,    2.450000e+01,    4.666667e+00,    3.033333e+01
    1791,    2.450000e+01,    4.666667e+00,    3.266667e+01
    1792,    2.450000e+01,    2.333333e+00,    3.033333e+01
    1793,    2.450000e+01,    2.333333e+00,    3.266667e+01
    1794,    2.566667e+01,    0.000000e+00,    3.033333e+01
    1795,    2.566667e+01,    0.000000e+00,    3.266667e+01
    1796,    2.566667e+01,    7.000000e+00,    3.033333e+01
    1797,    2.566667e+01,    7.000000e+00,    3.266667e+01
    1798,    2.450000e+01,    1.166667e+01,    3.033333e+01
    1799,    2.450000e+01,    1.166667e+01,    3.266667e+01
    1800,    2.450000e+01,    9.333333e+00,    3.033333e+01
    1801,    2.450000e+01,    9.333333e+00,    3.266667e+01
    1802,    2.566667e+01,    1.400000e+01,    3.033333e+01
    1803,    2.566667e+01,    1.400000e+01,    3.266667e+01
    1804,    2.450000e+01,    1.866667e+01,    3.033333e+01
    1805,    2.450000e+01,    1.866667e+01,    3.266667e+01
    1806,    2.450000e+01,    1.633333e+01,    3.033333e+01
    1807,    2.450000e+01,    1.633333e+01,    3.266667e+01
    1808,    2.566667e+01,    2.566667e+01,    3.266667e+01
    1809,    2.566667e+01,    2.566667e+01,    3.033333e+01
    1810,    2.566667e+01,    2.100000e+01,    3.033333e+01
    1811,    2.566667e+01,    2.100000e+01,    3.266667e+01
    1812,    1.633333e+01,    2.100000e+01,    2.333333e+01
    1813,    1.633333e+01,    2.100000e+01,    2.566667e+01
    1814,    1.633333e+01,    2.333333e+01,    2.333333e+01
    1815,    1.633333e+01,    2.333333e+01,    2.566667e+01
    1816,    1.866667e+01,    2.333333e+01,    2.333333e+01
    1817,    1.866667e+01,    2.333333e+01,    2.566667e+01
    1818,    1.866667e+01,    2.100000e+01,    2.333333e+01
    1819,    1.866667e+01,    2.100000e+01,    2.566667e+01
    1820,    2.333333e+01,    2.100000e+01,    2.566667e+01
    1821,    2.333333e+01,    2.100000e+01,    2.333333e+01
    1822,    2.100000e+01,    2.100000e+01,    2.566667e+01
    1823,    2.100000e+01,    2.100000e+01,    2.333333e+01
    1824,    2.100000e+01,    2.333333e+01,    2.566667e+01
    1825,    2.100000e+01,    2.333333e+01,    2.333333e+01
    1826,    2.333333e+01,    2.333333e+01,    2.566667e+01
    1827,    2.333333e+01,    2.333333e+01,    2.333333e+01
    1828,    2.333333e+01,    1.866667e+01,    2.333333e+01
    1829,    2.333333e+01,    1.866667e+01,    2.566667e+01
    1830,    2.100000e+01,    1.866667e+01,    2.333333e+01
    1831,    2.100000e+01,    1.866667e+01,    2.566667e+01
    1832,    2.333333e+01,    1.633333e+01,    2.333333e+01
    1833,    2.333333e+01,    1.633333e+01,    2.566667e+01
    1834,    2.100000e+01,    1.633333e+01,    2.333333e+01
    1835,    2.100000e+01,    1.633333e+01,    2.566667e+01
    1836,    2.333333e+01,    1.400000e+01,    2.333333e+01
    1837,    2.333333e+01,    1.400000e+01,    2.566667e+01
    1838,    2.100000e+01,    1.400000e+01,    2.566667e+01
    1839,    2.100000e+01,    1.400000e+01,    2.333333e+01
    1840,    2.333333e+01,    1.166667e+01,    2.333333e+01
    1841,    2.333333e+01,    1.166667e+01,    2.566667e+01
    1842,    2.100000e+01,    1.166667e+01,    2.333333e+01
    1843,    2.100000e+01,    1.166667e+01,    2.566667e+01
    1844,    2.100000e+01,    7.000000e+00,    2.566667e+01
    1845,    2.100000e+01,    7.000000e+00,    2.333333e+01
    1846,    2.333333e+01,    7.000000e+00,    2.333333e+01
    1847,    2.333333e+01,    7.000000e+00,    2.566667e+01
    1848,    2.333333e+01,    4.666667e+00,    2.333333e+01
    1849,    2.333333e+01,    4.666667e+00,    2.566667e+01
    1850,    2.100000e+01,    4.666667e+00,    2.333333e+01
    1851,    2.100000e+01,    4.666667e+00,    2.566667e+01
    1852,    2.100000e+01,    2.333333e+00,    2.333333e+01
    1853,    2.100000e+01,    2.333333e+00,    2.566667e+01
    1854,    2.333333e+01,    2.333333e+00,    2.333333e+01
    1855,    2.333333e+01,    2.333333e+00,    2.566667e+01
    1856,    2.333333e+01,    0.000000e+00,    2.333333e+01
    1857,    2.333333e+01,    0.000000e+00,    2.566667e+01
    1858,    2.100000e+01,    0.000000e+00,    2.566667e+01
    1859,    2.100000e+01,    0.000000e+00,    2.333333e+01
    1860,    2.333333e+01,    9.333333e+00,    2.333333e+01
    1861,    2.333333e+01,    9.333333e+00,    2.566667e+01
    1862,    2.100000e+01,    9.333333e+00,    2.333333e+01
    1863,    2.100000e+01,    9.333333e+00,    2.566667e+01
    1864,    9.333333e+00,    2.100000e+01,    2.333333e+01
    1865,    9.333333e+00,    2.100000e+01,    2.566667e+01
    1866,    9.333333e+00,    2.333333e+01,    2.333333e+01
    1867,    9.333333e+00,    2.333333e+01,    2.566667e+01
    1868,    1.166667e+01,    2.333333e+01,    2.333333e+01
    1869,    1.166667e+01,    2.333333e+01,    2.566667e+01
    1870,    1.166667e+01,    2.100000e+01,    2.333333e+01
    1871,    1.166667e+01,    2.100000e+01,    2.566667e+01
    1872,    1.400000e+01,    2.333333e+01,    2.333333e+01
    1873,    1.400000e+01,    2.333333e+01,    2.566667e+01
    1874,    1.400000e+01,    2.100000e+01,    2.566667e+01
    1875,    1.400000e+01,    2.100000e+01,    2.333333e+01
    1876,    7.000000e+00,    2.100000e+01,    2.566667e+01
    1877,    7.000000e+00,    2.100000e+01,    2.333333e+01
    1878,    7.000000e+00,    2.333333e+01,    2.333333e+01
    1879,    7.000000e+00,    2.333333e+01,    2.566667e+01
    1880,    4.666667e+00,    2.100000e+01,    2.333333e+01
    1881,    4.666667e+00,    2.100000e+01,    2.566667e+01
    1882,    4.666667e+00,    2.333333e+01,    2.333333e+01
    1883,    4.666667e+00,    2.333333e+01,    2.566667e+01
    1884,    0.000000e+00,    2.100000e+01,    2.333333e+01
    1885,    0.000000e+00,    2.100000e+01,    2.566667e+01
    1886,    0.000000e+00,    2.333333e+01,    2.566667e+01
    1887,    0.000000e+00,    2.333333e+01,    2.333333e+01
    1888,    2.333333e+00,    2.333333e+01,    2.333333e+01
    1889,    2.333333e+00,    2.333333e+01,    2.566667e+01
    1890,    2.333333e+00,    2.100000e+01,    2.333333e+01
    1891,    2.333333e+00,    2.100000e+01,    2.566667e+01
    1892,    2.566667e+01,    2.566667e+01,    2.566667e+01
    1893,    2.566667e+01,    2.566667e+01,    2.333333e+01
    1894,    2.100000e+01,    2.566667e+01,    2.566667e+01
    1895,    2.100000e+01,    2.566667e+01,    2.333333e+01
    1896,    1.166667e+01,    2.450000e+01,    2.333333e+01
    1897,    1.166667e+01,    2.450000e+01,    2.566667e+01
    1898,    1.400000e+01,    2.566667e+01,    2.333333e+01
    1899,    1.400000e+01,    2.566667e+01,    2.566667e+01
    1900,    9.333333e+00,    2.450000e+01,    2.333333e+01
    1901,    9.333333e+00,    2.450000e+01,    2.566667e+01
    1902,    7.000000e+00,    2.566667e+01,    2.333333e+01
    1903,    7.000000e+00,    2.566667e+01,    2.566667e+01
    1904,    2.333333e+00,    2.450000e+01,    2.333333e+01
    1905,    2.333333e+00,    2.450000e+01,    2.566667e+01
    1906,    4.666667e+00,    2.450000e+01,    2.333333e+01
    1907,    4.666667e+00,    2.450000e+01,    2.566667e+01
    1908,    0.000000e+00,    2.566667e+01,    2.566667e+01
    1909,    0.000000e+00,    2.566667e+01,    2.333333e+01
    1910,    1.633333e+01,    2.450000e+01,    2.333333e+01
    1911,    1.633333e+01,    2.450000e+01,    2.566667e+01
    1912,    2.566667e+01,    2.100000e+01,    2.566667e+01
    1913,    2.566667e+01,    2.100000e+01,    2.333333e+01
    1914,    2.450000e+01,    1.866667e+01,    2.566667e+01
    1915,    2.450000e+01,    1.866667e+01,    2.333333e+01
    1916,    2.450000e+01,    1.633333e+01,    2.333333e+01
    1917,    2.450000e+01,    1.633333e+01,    2.566667e+01
    1918,    2.566667e+01,    1.400000e+01,    2.333333e+01
    1919,    2.566667e+01,    1.400000e+01,    2.566667e+01
    1920,    2.566667e+01,    7.000000e+00,    2.333333e+01
    1921,    2.566667e+01,    7.000000e+00,    2.566667e+01
    1922,    2.450000e+01,    4.666667e+00,    2.333333e+01
    1923,    2.450000e+01,    4.666667e+00,    2.566667e+01
    1924,    2.450000e+01,    2.333333e+00,    2.333333e+01
    1925,    2.450000e+01,    2.333333e+00,    2.566667e+01
    1926,    2.566667e+01,    0.000000e+00,    2.333333e+01
    1927,    2.566667e+01,    0.000000e+00,    2.566667e+01
    1928,    2.450000e+01,    9.333333e+00,    2.333333e+01
    1929,    2.450000e+01,    9.333333e+00,    2.566667e+01
    1930,    2.450000e+01,    1.166667e+01,    2.333333e+01
    1931,    2.450000e+01,    1.166667e+01,    2.566667e+01
    1932,    1.866667e+01,    2.450000e+01,    2.333333e+01
    1933,    1.866667e+01,    2.450000e+01,    2.566667e+01
**
********************************** E L E M E N T S ****************************
*ELEMENT, TYPE=C3D8R, ELSET=EB1
       1,     787,     798,     864,     841,     793,     814,     989,     900
       2,     798,     797,     860,     864,     814,     820,     990,     989
       3,     797,     796,     856,     860,     820,     826,     991,     990
       4,     796,     795,     852,     856,     826,     832,     992,     991
       5,     795,     794,     839,     852,     832,     807,     954,     992
       6,     841,     864,     863,     842,     900,     989,     993,     894
       7,     864,     860,     859,     863,     989,     990,     994,     993
       8,     860,     856,     855,     859,     990,     991,     995,     994
       9,     856,     852,     851,     855,     991,     992,     996,     995
      10,     852,     839,     838,     851,     992,     954,     963,     996
      11,     842,     863,     862,     843,     894,     993,     997,     888
      12,     863,     859,     858,     862,     993,     994,     998,     997
      13,     859,     855,     854,     858,     994,     995,     999,     998
      14,     855,     851,     850,     854,     995,     996,    1000,     999
      15,     851,     838,     837,     850,     996,     963,     972,    1000
      16,     843,     862,     861,     844,     888,     997,    1001,     882
      17,     862,     858,     857,     861,     997,     998,    1002,    1001
      18,     858,     854,     853,     857,     998,     999,    1003,    1002
      19,     854,     850,     849,     853,     999,    1000,    1004,    1003
      20,     850,     837,     836,     849,    1000,     972,     981,    1004
      21,     844,     861,     845,     840,     882,    1001,     945,     873
      22,     861,     857,     846,     845,    1001,    1002,     936,     945
      23,     857,     853,     847,     846,    1002,    1003,     927,     936
      24,     853,     849,     848,     847,    1003,    1004,     918,     927
      25,     849,     836,     835,     848,    1004,     981,     909,     918
      26,     793,     814,     989,     900,     792,     813,    1005,     899
      27,     814,     820,     990,     989,     813,     819,    1006,    1005
      28,     820,     826,     991,     990,     819,     825,    1007,    1006
      29,     826,     832,     992,     991,     825,     831,    1008,    1007
      30,     832,     807,     954,     992,     831,     806,     953,    1008
      31,     900,     989,     993,     894,     899,    1005,    1009,     893
      32,     989,     990,     994,     993,    1005,    1006,    1010,    1009
      33,     990,     991,     995,     994,    1006,    1007,    1011,    1010
      34,     991,     992,     996,     995,    1007,    1008,    1012,    1011
      35,     992,     954,     963,     996,    1008,     953,     962,    1012
      36,     894,     993,     997,     888,     893,    1009,    1013,     887
      37,     993,     994,     998,     997,    1009,    1010,    1014,    1013
      38,     994,     995,     999,     998,    1010,    1011,    1015,    1014
      39,     995,     996,    1000,     999,    1011,    1012,    1016,    1015
      40,     996,     963,     972,    1000,    1012,     962,     971,    1016
      41,     888,     997,    1001,     882,     887,    1013,    1017,     881
      42,     997,     998,    1002,    1001,    1013,    1014,    1018,    1017
      43,     998,     999,    1003,    1002,    1014,    1015,    1019,    1018
      44,     999,    1000,    1004,    1003,    1015,    1016,    1020,    1019
      45,    1000,     972,     981,    1004,    1016,     971,     980,    1020
      46,     882,    1001,     945,     873,     881,    1017,     944,     872
      47,    1001,    1002,     936,     945,    1017,    1018,     935,     944
      48,    1002,    1003,     927,     936,    1018,    1019,     926,     935
      49,    1003,    1004,     918,     927,    1019,    1020,     917,     926
      50,    1004,     981,     909,     918,    1020,     980,     908,     917
      51,     792,     813,    1005,     899,     791,     812,    1021,     898
      52,     813,     819,    1006,    1005,     812,     818,    1022,    1021
      53,     819,     825,    1007,    1006,     818,     824,    1023,    1022
      54,     825,     831,    1008,    1007,     824,     830,    1024,    1023
      55,     831,     806,     953,    1008,     830,     805,     952,    1024
      56,     899,    1005,    1009,     893,     898,    1021,    1025,     892
      57,    1005,    1006,    1010,    1009,    1021,    1022,    1026,    1025
      58,    1006,    1007,    1011,    1010,    1022,    1023,    1027,    1026
      59,    1007,    1008,    1012,    1011,    1023,    1024,    1028,    1027
      60,    1008,     953,     962,    1012,    1024,     952,     961,    1028
      61,     893,    1009,    1013,     887,     892,    1025,    1029,     886
      62,    1009,    1010,    1014,    1013,    1025,    1026,    1030,    1029
      63,    1010,    1011,    1015,    1014,    1026,    1027,    1031,    1030
      64,    1011,    1012,    1016,    1015,    1027,    1028,    1032,    1031
      65,    1012,     962,     971,    1016,    1028,     961,     970,    1032
      66,     887,    1013,    1017,     881,     886,    1029,    1033,     880
      67,    1013,    1014,    1018,    1017,    1029,    1030,    1034,    1033
      68,    1014,    1015,    1019,    1018,    1030,    1031,    1035,    1034
      69,    1015,    1016,    1020,    1019,    1031,    1032,    1036,    1035
      70,    1016,     971,     980,    1020,    1032,     970,     979,    1036
      71,     881,    1017,     944,     872,     880,    1033,     943,     871
      72,    1017,    1018,     935,     944,    1033,    1034,     934,     943
      73,    1018,    1019,     926,     935,    1034,    1035,     925,     934
      74,    1019,    1020,     917,     926,    1035,    1036,     916,     925
      75,    1020,     980,     908,     917,    1036,     979,     907,     916
      76,     791,     812,    1021,     898,     790,     811,    1037,     897
      77,     812,     818,    1022,    1021,     811,     817,    1038,    1037
      78,     818,     824,    1023,    1022,     817,     823,    1039,    1038
      79,     824,     830,    1024,    1023,     823,     829,    1040,    1039
      80,     830,     805,     952,    1024,     829,     804,     951,    1040
      81,     898,    1021,    1025,     892,     897,    1037,    1041,     891
      82,    1021,    1022,    1026,    1025,    1037,    1038,    1042,    1041
      83,    1022,    1023,    1027,    1026,    1038,    1039,    1043,    1042
      84,    1023,    1024,    1028,    1027,    1039,    1040,    1044,    1043
      85,    1024,     952,     961,    1028,    1040,     951,     960,    1044
      86,     892,    1025,    1029,     886,     891,    1041,    1045,     885
      87,    1025,    1026,    1030,    1029,    1041,    1042,    1046,    1045
      88,    1026,    1027,    1031,    1030,    1042,    1043,    1047,    1046
      89,    1027,    1028,    1032,    1031,    1043,    1044,    1048,    1047
      90,    1028,     961,     970,    1032,    1044,     960,     969,    1048
      91,     886,    1029,    1033,     880,     885,    1045,    1049,     879
      92,    1029,    1030,    1034,    1033,    1045,    1046,    1050,    1049
      93,    1030,    1031,    1035,    1034,    1046,    1047,    1051,    1050
      94,    1031,    1032,    1036,    1035,    1047,    1048,    1052,    1051
      95,    1032,     970,     979,    1036,    1048,     969,     978,    1052
      96,     880,    1033,     943,     871,     879,    1049,     942,     870
      97,    1033,    1034,     934,     943,    1049,    1050,     933,     942
      98,    1034,    1035,     925,     934,    1050,    1051,     924,     933
      99,    1035,    1036,     916,     925,    1051,    1052,     915,     924
     100,    1036,     979,     907,     916,    1052,     978,     906,     915
     101,     790,     811,    1037,     897,     789,     810,    1053,     896
     102,     811,     817,    1038,    1037,     810,     816,    1054,    1053
     103,     817,     823,    1039,    1038,     816,     822,    1055,    1054
     104,     823,     829,    1040,    1039,     822,     828,    1056,    1055
     105,     829,     804,     951,    1040,     828,     803,     950,    1056
     106,     897,    1037,    1041,     891,     896,    1053,    1057,     890
     107,    1037,    1038,    1042,    1041,    1053,    1054,    1058,    1057
     108,    1038,    1039,    1043,    1042,    1054,    1055,    1059,    1058
     109,    1039,    1040,    1044,    1043,    1055,    1056,    1060,    1059
     110,    1040,     951,     960,    1044,    1056,     950,     959,    1060
     111,     891,    1041,    1045,     885,     890,    1057,    1061,     884
     112,    1041,    1042,    1046,    1045,    1057,    1058,    1062,    1061
     113,    1042,    1043,    1047,    1046,    1058,    1059,    1063,    1062
     114,    1043,    1044,    1048,    1047,    1059,    1060,    1064,    1063
     115,    1044,     960,     969,    1048,    1060,     959,     968,    1064
     116,     885,    1045,    1049,     879,     884,    1061,    1065,     878
     117,    1045,    1046,    1050,    1049,    1061,    1062,    1066,    1065
     118,    1046,    1047,    1051,    1050,    1062,    1063,    1067,    1066
     119,    1047,    1048,    1052,    1051,    1063,    1064,    1068,    1067
     120,    1048,     969,     978,    1052,    1064,     968,     977,    1068
     121,     879,    1049,     942,     870,     878,    1065,     941,     869
     122,    1049,    1050,     933,     942,    1065,    1066,     932,     941
     123,    1050,    1051,     924,     933,    1066,    1067,     923,     932
     124,    1051,    1052,     915,     924,    1067,    1068,     914,     923
     125,    1052,     978,     906,     915,    1068,     977,     905,     914
     126,     789,     810,    1053,     896,     788,     809,    1069,     895
     127,     810,     816,    1054,    1053,     809,     815,    1070,    1069
     128,     816,     822,    1055,    1054,     815,     821,    1071,    1070
     129,     822,     828,    1056,    1055,     821,     827,    1072,    1071
     130,     828,     803,     950,    1056,     827,     802,     949,    1072
     131,     896,    1053,    1057,     890,     895,    1069,    1073,     889
     132,    1053,    1054,    1058,    1057,    1069,    1070,    1074,    1073
     133,    1054,    1055,    1059,    1058,    1070,    1071,    1075,    1074
     134,    1055,    1056,    1060,    1059,    1071,    1072,    1076,    1075
     135,    1056,     950,     959,    1060,    1072,     949,     958,    1076
     136,     890,    1057,    1061,     884,     889,    1073,    1077,     883
     137,    1057,    1058,    1062,    1061,    1073,    1074,    1078,    1077
     138,    1058,    1059,    1063,    1062,    1074,    1075,    1079,    1078
     139,    1059,    1060,    1064,    1063,    1075,    1076,    1080,    1079
     140,    1060,     959,     968,    1064,    1076,     958,     967,    1080
     141,     884,    1061,    1065,     878,     883,    1077,    1081,     877
     142,    1061,    1062,    1066,    1065,    1077,    1078,    1082,    1081
     143,    1062,    1063,    1067,    1066,    1078,    1079,    1083,    1082
     144,    1063,    1064,    1068,    1067,    1079,    1080,    1084,    1083
     145,    1064,     968,     977,    1068,    1080,     967,     976,    1084
     146,     878,    1065,     941,     869,     877,    1081,     940,     868
     147,    1065,    1066,     932,     941,    1081,    1082,     931,     940
     148,    1066,    1067,     923,     932,    1082,    1083,     922,     931
     149,    1067,    1068,     914,     923,    1083,    1084,     913,     922
     150,    1068,     977,     905,     914,    1084,     976,     904,     913
     151,     827,     802,     949,    1072,     808,     801,     948,     988
     152,    1072,     949,     958,    1076,     988,     948,     957,     987
     153,    1076,     958,     967,    1080,     987,     957,     966,     982
     154,    1080,     967,     976,    1084,     982,     966,     975,     986
     155,     877,    1081,     940,     868,     874,     983,     939,     867
     156,    1081,    1082,     931,     940,     983,     984,     930,     939
     157,    1082,    1083,     922,     931,     984,     985,     921,     930
     158,    1083,    1084,     913,     922,     985,     986,     912,     921
     159,    1084,     976,     904,     913,     986,     975,     903,     912
     160,     982,     966,     975,     986,    1085,     965,     974,    1090
     161,     874,     983,     939,     867,     875,    1087,     938,     866
     162,     983,     984,     930,     939,    1087,    1088,     929,     938
     163,     984,     985,     921,     930,    1088,    1089,     920,     929
     164,     985,     986,     912,     921,    1089,    1090,     911,     920
     165,     986,     975,     903,     912,    1090,     974,     902,     911
     166,    1085,     965,     974,    1090,    1086,     964,     973,    1094
     167,     875,    1087,     938,     866,     876,    1091,     937,     865
     168,    1087,    1088,     929,     938,    1091,    1092,     928,     937
     169,    1088,    1089,     920,     929,    1092,    1093,     919,     928
     170,    1089,    1090,     911,     920,    1093,    1094,     910,     919
     171,    1090,     974,     902,     911,    1094,     973,     901,     910
     172,    1086,     964,     973,    1094,     783,     772,     773,     784
     173,     876,    1091,     937,     865,     779,     786,     778,     774
     174,    1091,    1092,     928,     937,     786,     785,     777,     778
     175,    1092,    1093,     919,     928,     785,     780,     776,     777
     176,    1093,    1094,     910,     919,     780,     784,     775,     776
     177,    1094,     973,     901,     910,     784,     773,     769,     775
     178,     808,     801,     948,     988,     833,     800,     947,    1095
     179,     988,     948,     957,     987,    1095,     947,     956,    1096
     180,     987,     957,     966,     982,    1096,     956,     965,    1085
     181,     833,     800,     947,    1095,     834,     799,     946,    1097
     182,    1095,     947,     956,    1096,    1097,     946,     955,    1098
     183,    1096,     956,     965,    1085,    1098,     955,     964,    1086
     184,     834,     799,     946,    1097,     768,     767,     770,     781
     185,    1097,     946,     955,    1098,     781,     770,     771,     782
     186,    1098,     955,     964,    1086,     782,     771,     772,     783
     187,    1101,    1103,    1105,    1104,     730,    1100,    1102,    1099
     188,    1103,    1080,    1084,    1105,    1100,     982,     986,    1102
     189,    1104,    1105,    1084,    1083,    1099,    1102,     986,     985
     190,    1079,    1080,    1084,    1083,    1101,    1103,    1105,    1104
     191,    1101,    1103,    1100,     730,    1160,    1163,    1165,    1166
     192,    1160,    1163,    1165,    1166,    1161,    1162,    1164,    1167
     193,    1161,    1162,    1164,    1167,    1113,    1114,    1112,     732
     194,    1192,    1096,    1085,    1193,    1194,    1098,    1086,    1195
     195,    1194,    1098,    1086,    1195,    1196,     782,     783,    1197
     196,     889,    1073,    1077,     883,    1201,    1199,    1198,    1200
     197,    1202,     987,     982,    1203,    1192,    1096,    1085,    1193
     198,    1114,    1076,    1204,    1162,    1112,     987,    1202,    1164
     199,    1162,    1204,    1205,    1163,    1164,    1202,    1203,    1165
     200,    1163,    1205,    1080,    1103,    1165,    1203,     982,    1100
     201,    1204,    1076,    1080,    1205,    1202,     987,     982,    1203
     202,    1073,    1074,    1078,    1077,    1199,    1206,    1207,    1198
     203,    1074,    1075,    1079,    1078,    1206,    1209,    1208,    1207
     204,    1075,    1076,    1204,    1209,    1113,    1114,    1162,    1161
     205,    1209,    1204,    1205,    1208,    1161,    1162,    1163,    1160
     206,    1208,    1205,    1080,    1079,    1160,    1163,    1103,    1101
     207,    1075,    1076,    1080,    1079,    1209,    1204,    1205,    1208
     208,    1122,    1123,    1121,     736,    1210,    1213,    1215,    1216
     209,    1210,    1213,    1215,    1216,    1211,    1212,    1214,    1217
     210,    1211,    1212,    1214,    1217,    1101,    1104,    1099,     730
     211,    1171,    1172,    1173,    1170,    1222,    1224,    1226,    1228
     212,    1222,    1224,    1226,    1228,    1223,    1225,    1227,    1229
     213,    1223,    1225,    1227,    1229,    1160,    1166,    1167,    1161
     214,    1170,    1173,     743,    1141,    1228,    1226,    1235,    1233
     215,    1228,    1226,    1235,    1233,    1229,    1227,    1234,    1232
     216,    1229,    1227,    1234,    1232,    1161,    1167,     732,    1113
     217,    1122,     736,    1172,    1171,    1210,    1216,    1224,    1222
     218,    1210,    1216,    1224,    1222,    1211,    1217,    1225,    1223
     219,    1211,    1217,    1225,    1223,    1101,     730,    1166,    1160
     220,    1206,    1252,    1250,    1207,    1170,    1228,    1222,    1171
     221,    1252,    1253,    1251,    1250,    1228,    1229,    1223,    1222
     222,    1253,    1209,    1208,    1251,    1229,    1161,    1160,    1223
     223,    1206,    1209,    1208,    1207,    1252,    1253,    1251,    1250
     224,    1070,    1071,    1075,    1074,    1254,    1255,    1257,    1256
     225,    1259,    1258,     985,     984,    1261,    1260,    1089,    1088
     226,    1263,    1262,    1093,    1092,    1265,    1264,     780,     785
     227,    1261,    1260,    1089,    1088,    1263,    1262,    1093,    1092
     228,    1212,    1104,    1083,    1266,    1214,    1099,     985,    1258
     229,    1213,    1212,    1266,    1267,    1215,    1214,    1258,    1259
     230,    1123,    1213,    1267,    1082,    1121,    1215,    1259,     984
     231,    1267,    1266,    1083,    1082,    1259,    1258,     985,     984
     232,     815,     821,    1071,    1070,    1268,    1269,    1255,    1254
     233,    1074,    1256,    1252,    1206,    1141,    1233,    1228,    1170
     234,    1256,    1257,    1253,    1252,    1233,    1232,    1229,    1228
     235,    1257,    1075,    1209,    1253,    1232,    1113,    1161,    1229
     236,    1074,    1075,    1209,    1206,    1256,    1257,    1253,    1252
     237,    1207,    1250,    1270,    1078,    1171,    1222,    1210,    1122
     238,    1250,    1251,    1271,    1270,    1222,    1223,    1211,    1210
     239,    1251,    1208,    1079,    1271,    1223,    1160,    1101,    1211
     240,    1207,    1208,    1079,    1078,    1250,    1251,    1271,    1270
     241,    1078,    1270,    1267,    1082,    1122,    1210,    1213,    1123
     242,    1270,    1271,    1266,    1267,    1210,    1211,    1212,    1213
     243,    1271,    1079,    1083,    1266,    1211,    1101,    1104,    1212
     244,    1078,    1079,    1083,    1082,    1270,    1271,    1266,    1267
     245,    1177,    1179,    1178,    1176,    1273,    1275,    1277,    1279
     246,    1273,    1275,    1277,    1279,    1272,    1274,    1276,    1278
     247,    1272,    1274,    1276,    1278,    1166,    1165,    1164,    1167
     248,     748,    1124,    1179,    1177,    1292,    1295,    1275,    1273
     249,    1292,    1295,    1275,    1273,    1293,    1294,    1274,    1272
     250,    1293,    1294,    1274,    1272,     730,    1100,    1165,    1166
     251,    1220,    1218,    1125,     748,    1297,    1299,    1301,    1292
     252,    1297,    1299,    1301,    1292,    1296,    1298,    1300,    1293
     253,    1296,    1298,    1300,    1293,    1217,    1214,    1099,     730
     254,    1221,    1219,    1218,    1220,    1303,    1305,    1299,    1297
     255,    1303,    1305,    1299,    1297,    1302,    1304,    1298,    1296
     256,    1302,    1304,    1298,    1296,    1216,    1215,    1214,    1217
     257,     754,    1144,    1219,    1221,    1314,    1317,    1305,    1303
     258,    1314,    1317,    1305,    1303,    1315,    1316,    1304,    1302
     259,    1315,    1316,    1304,    1302,     736,    1121,    1215,    1216
     260,    1124,     748,    1125,    1126,    1295,    1292,    1301,    1318
     261,    1295,    1292,    1301,    1318,    1294,    1293,    1300,    1319
     262,    1294,    1293,    1300,    1319,    1100,     730,    1099,    1102
     263,    1176,    1178,    1153,     765,    1279,    1277,    1286,    1284
     264,    1279,    1277,    1286,    1284,    1278,    1276,    1287,    1285
     265,    1278,    1276,    1287,    1285,    1167,    1164,    1112,     732
     266,    1321,     988,     987,    1323,    1320,    1095,    1096,    1322
     267,    1165,    1203,     982,    1100,    1274,    1326,    1324,    1294
     268,    1274,    1326,    1324,    1294,    1275,    1327,    1325,    1295
     269,    1275,    1327,    1325,    1295,    1179,    1193,    1085,    1124
     270,    1326,    1203,     982,    1324,    1327,    1193,    1085,    1325
     271,    1214,    1099,     985,    1258,    1298,    1300,    1330,    1328
     272,    1298,    1300,    1330,    1328,    1299,    1301,    1331,    1329
     273,    1299,    1301,    1331,    1329,    1218,    1125,    1089,    1260
     274,    1328,    1330,     985,    1258,    1329,    1331,    1089,    1260
     275,    1335,    1333,     983,     874,    1334,    1332,    1087,     875
     276,    1333,    1336,     984,     983,    1332,    1337,    1088,    1087
     277,    1121,    1215,    1259,     984,    1316,    1304,    1338,    1336
     278,    1316,    1304,    1338,    1336,    1317,    1305,    1339,    1337
     279,    1317,    1305,    1339,    1337,    1144,    1219,    1261,    1088
     280,    1336,    1338,    1259,     984,    1337,    1339,    1261,    1088
     281,    1215,    1214,    1258,    1259,    1304,    1298,    1328,    1338
     282,    1304,    1298,    1328,    1338,    1305,    1299,    1329,    1339
     283,    1305,    1299,    1329,    1339,    1219,    1218,    1260,    1261
     284,    1338,    1328,    1258,    1259,    1339,    1329,    1260,    1261
     285,    1301,    1318,    1340,    1331,    1125,    1126,    1090,    1089
     286,    1300,    1319,    1341,    1330,    1301,    1318,    1340,    1331
     287,    1099,    1102,     986,     985,    1300,    1319,    1341,    1330
     288,    1330,    1341,     986,     985,    1331,    1340,    1090,    1089
     289,    1100,     982,     986,    1102,    1294,    1324,    1341,    1319
     290,    1294,    1324,    1341,    1319,    1295,    1325,    1340,    1318
     291,    1295,    1325,    1340,    1318,    1124,    1085,    1090,    1126
     292,    1324,     982,     986,    1341,    1325,    1085,    1090,    1340
     293,    1342,     808,     988,    1321,    1343,     833,    1095,    1320
     294,    1112,     987,    1202,    1164,    1287,    1323,    1344,    1276
     295,    1287,    1323,    1344,    1276,    1286,    1322,    1345,    1277
     296,    1286,    1322,    1345,    1277,    1153,    1096,    1192,    1178
     297,    1323,     987,    1202,    1344,    1322,    1096,    1192,    1345
     298,    1164,    1202,    1203,    1165,    1276,    1344,    1326,    1274
     299,    1276,    1344,    1326,    1274,    1277,    1345,    1327,    1275
     300,    1277,    1345,    1327,    1275,    1178,    1192,    1193,    1179
     301,    1344,    1202,    1203,    1326,    1345,    1192,    1193,    1327
     302,    1236,    1231,    1109,     733,    1347,    1349,    1351,    1352
     303,    1347,    1349,    1351,    1352,    1346,    1348,    1350,    1353
     304,    1346,    1348,    1350,    1353,    1248,    1247,    1107,     731
     305,    1281,    1283,     733,    1108,    1354,    1356,    1352,    1358
     306,    1354,    1356,    1352,    1358,    1355,    1357,    1353,    1359
     307,    1355,    1357,    1353,    1359,    1288,    1291,     731,    1106
     308,    1237,    1230,    1231,    1236,    1361,    1363,    1349,    1347
     309,    1361,    1363,    1349,    1347,    1360,    1362,    1348,    1346
     310,    1360,    1362,    1348,    1346,    1249,    1246,    1247,    1248
     311,     742,    1137,    1230,    1237,    1374,    1373,    1363,    1361
     312,    1374,    1373,    1363,    1361,    1375,    1372,    1362,    1360
     313,    1375,    1372,    1362,    1360,     740,    1138,    1246,    1249
     314,    1151,     763,    1282,    1280,    1376,    1379,    1380,    1382
     315,    1376,    1379,    1380,    1382,    1377,    1378,    1381,    1383
     316,    1377,    1378,    1381,    1383,    1152,     760,    1290,    1289
     317,    1280,    1282,    1283,    1281,    1382,    1380,    1356,    1354
     318,    1382,    1380,    1356,    1354,    1383,    1381,    1357,    1355
     319,    1383,    1381,    1357,    1355,    1289,    1290,    1291,    1288
     320,    1109,    1111,    1108,     733,    1351,    1393,    1358,    1352
     321,    1351,    1393,    1358,    1352,    1350,    1392,    1359,    1353
     322,    1350,    1392,    1359,    1353,    1107,    1110,    1106,     731
     323,    1358,    1396,     988,    1108,    1354,    1394,    1321,    1281
     324,    1359,    1397,    1396,    1358,    1355,    1395,    1394,    1354
     325,    1106,     808,    1397,    1359,    1288,    1342,    1395,    1355
     326,    1397,     808,     988,    1396,    1395,    1342,    1321,    1394
     327,    1382,    1400,    1320,    1280,    1376,    1398,    1095,    1151
     328,    1383,    1401,    1400,    1382,    1377,    1399,    1398,    1376
     329,    1289,    1343,    1401,    1383,    1152,     833,    1399,    1377
     330,    1401,    1343,    1320,    1400,    1399,     833,    1095,    1398
     331,    1402,     834,    1097,    1403,    1404,     768,     781,    1405
     332,    1399,     833,    1095,    1398,    1402,     834,    1097,    1403
     333,    1354,    1394,    1321,    1281,    1382,    1400,    1320,    1280
     334,    1355,    1395,    1394,    1354,    1383,    1401,    1400,    1382
     335,    1288,    1342,    1395,    1355,    1289,    1343,    1401,    1383
     336,    1395,    1342,    1321,    1394,    1401,    1343,    1320,    1400
     337,    1268,    1269,    1408,    1406,    1246,    1247,    1348,    1362
     338,    1406,    1408,    1409,    1407,    1362,    1348,    1349,    1363
     339,    1407,    1409,    1255,    1254,    1363,    1349,    1231,    1230
     340,    1268,    1269,    1255,    1254,    1406,    1408,    1409,    1407
     341,     788,     809,    1069,     895,    1412,    1410,    1411,    1413
     342,     815,    1268,    1406,    1414,    1138,    1246,    1362,    1372
     343,    1414,    1406,    1407,    1415,    1372,    1362,    1363,    1373
     344,    1415,    1407,    1254,    1070,    1373,    1363,    1230,    1137
     345,     815,    1268,    1254,    1070,    1414,    1406,    1407,    1415
     346,     809,     815,    1070,    1069,    1410,    1414,    1415,    1411
     347,    1269,     821,    1416,    1408,    1247,    1107,    1350,    1348
     348,    1408,    1416,    1417,    1409,    1348,    1350,    1351,    1349
     349,    1409,    1417,    1071,    1255,    1349,    1351,    1109,    1231
     350,    1269,     821,    1071,    1255,    1408,    1416,    1417,    1409
     351,    1110,     827,    1418,    1392,    1106,     808,    1397,    1359
     352,    1392,    1418,    1419,    1393,    1359,    1397,    1396,    1358
     353,    1393,    1419,    1072,    1111,    1358,    1396,     988,    1108
     354,    1418,     827,    1072,    1419,    1397,     808,     988,    1396
     355,     821,     827,    1418,    1416,    1107,    1110,    1392,    1350
     356,    1416,    1418,    1419,    1417,    1350,    1392,    1393,    1351
     357,    1417,    1419,    1072,    1071,    1351,    1393,    1111,    1109
     358,     821,     827,    1072,    1071,    1416,    1418,    1419,    1417
     359,    1116,     734,    1187,    1185,    1420,    1422,    1424,    1426
     360,    1420,    1422,    1424,    1426,    1421,    1423,    1425,    1427
     361,    1421,    1423,    1425,    1427,    1118,     735,    1174,    1168
     362,    1311,    1308,     734,    1115,    1428,    1430,    1422,    1432
     363,    1428,    1430,    1422,    1432,    1429,    1431,    1423,    1433
     364,    1429,    1431,    1423,    1433,    1313,    1307,     735,    1117
     365,    1184,    1186,     739,    1140,    1434,    1436,    1439,    1440
     366,    1434,    1436,    1439,    1440,    1435,    1437,    1438,    1441
     367,    1435,    1437,    1438,    1441,    1169,    1175,     745,    1139
     368,    1185,    1187,    1186,    1184,    1426,    1424,    1436,    1434
     369,    1426,    1424,    1436,    1434,    1427,    1425,    1437,    1435
     370,    1427,    1425,    1437,    1435,    1168,    1174,    1175,    1169
     371,    1136,     738,    1371,    1365,    1442,    1445,    1446,    1448
     372,    1442,    1445,    1446,    1448,    1443,    1444,    1447,    1449
     373,    1443,    1444,    1447,    1449,    1134,     744,    1368,    1367
     374,    1365,    1371,    1370,    1364,    1448,    1446,    1450,    1452
     375,    1448,    1446,    1450,    1452,    1449,    1447,    1451,    1453
     376,    1449,    1447,    1451,    1453,    1367,    1368,    1369,    1366
     377,    1364,    1370,     737,    1133,    1452,    1450,    1455,    1456
     378,    1452,    1450,    1455,    1456,    1453,    1451,    1454,    1457
     379,    1453,    1451,    1454,    1457,    1366,    1369,     741,    1135
     380,    1142,     752,    1309,    1310,    1458,    1461,    1462,    1464
     381,    1458,    1461,    1462,    1464,    1459,    1460,    1463,    1465
     382,    1459,    1460,    1463,    1465,    1143,     756,    1306,    1312
     383,    1310,    1309,    1308,    1311,    1464,    1462,    1430,    1428
     384,    1464,    1462,    1430,    1428,    1465,    1463,    1431,    1429
     385,    1465,    1463,    1431,    1429,    1312,    1306,    1307,    1313
     386,    1116,    1119,    1115,     734,    1420,    1475,    1432,    1422
     387,    1420,    1475,    1432,    1422,    1421,    1474,    1433,    1423
     388,    1421,    1474,    1433,    1423,    1118,    1120,    1117,     735
     389,    1115,    1432,    1478,     874,    1311,    1428,    1476,    1335
     390,    1432,    1433,    1479,    1478,    1428,    1429,    1477,    1476
     391,    1433,    1117,     983,    1479,    1429,    1313,    1333,    1477
     392,    1478,    1479,     983,     874,    1476,    1477,    1333,    1335
     393,    1310,    1464,    1482,    1334,    1142,    1458,    1480,     875
     394,    1464,    1465,    1483,    1482,    1458,    1459,    1481,    1480
     395,    1465,    1312,    1332,    1483,    1459,    1143,    1087,    1481
     396,    1482,    1483,    1332,    1334,    1480,    1481,    1087,     875
     397,    1485,    1484,    1091,     876,    1487,    1486,     786,     779
     398,    1480,    1481,    1087,     875,    1485,    1484,    1091,     876
     399,    1311,    1428,    1476,    1335,    1310,    1464,    1482,    1334
     400,    1428,    1429,    1477,    1476,    1464,    1465,    1483,    1482
     401,    1429,    1313,    1333,    1477,    1465,    1312,    1332,    1483
     402,    1476,    1477,    1333,    1335,    1482,    1483,    1332,    1334
     403,     788,    1490,    1488,    1412,    1133,    1456,    1452,    1364
     404,    1490,    1491,    1489,    1488,    1456,    1457,    1453,    1452
     405,    1491,     809,    1410,    1489,    1457,    1135,    1366,    1453
     406,     788,     809,    1410,    1412,    1490,    1491,    1489,    1488
     407,     889,    1494,    1492,    1201,    1140,    1440,    1434,    1184
     408,    1494,    1495,    1493,    1492,    1440,    1441,    1435,    1434
     409,    1495,    1073,    1199,    1493,    1441,    1139,    1169,    1435
     410,     889,    1073,    1199,    1201,    1494,    1495,    1493,    1492
     411,    1201,    1492,    1496,    1200,    1184,    1434,    1426,    1185
     412,    1492,    1493,    1497,    1496,    1434,    1435,    1427,    1426
     413,    1493,    1199,    1198,    1497,    1435,    1169,    1168,    1427
     414,    1201,    1199,    1198,    1200,    1492,    1493,    1497,    1496
     415,    1412,    1488,    1498,    1413,    1364,    1452,    1448,    1365
     416,    1488,    1489,    1499,    1498,    1452,    1453,    1449,    1448
     417,    1489,    1410,    1411,    1499,    1453,    1366,    1367,    1449
     418,    1412,    1410,    1411,    1413,    1488,    1489,    1499,    1498
     419,    1413,    1498,    1500,     895,    1365,    1448,    1442,    1136
     420,    1498,    1499,    1501,    1500,    1448,    1449,    1443,    1442
     421,    1499,    1411,    1069,    1501,    1449,    1367,    1134,    1443
     422,    1413,    1411,    1069,     895,    1498,    1499,    1501,    1500
     423,     895,    1069,    1073,     889,    1500,    1501,    1495,    1494
     424,    1474,    1120,    1081,    1502,    1433,    1117,     983,    1479
     425,    1475,    1474,    1502,    1503,    1432,    1433,    1479,    1478
     426,    1119,    1475,    1503,     877,    1115,    1432,    1478,     874
     427,    1503,    1502,    1081,     877,    1478,    1479,     983,     874
     428,    1200,    1496,    1504,     883,    1185,    1426,    1420,    1116
     429,    1496,    1497,    1505,    1504,    1426,    1427,    1421,    1420
     430,    1497,    1198,    1077,    1505,    1427,    1168,    1118,    1421
     431,    1200,    1198,    1077,     883,    1496,    1497,    1505,    1504
     432,     883,    1504,    1503,     877,    1116,    1420,    1475,    1119
     433,    1504,    1505,    1502,    1503,    1420,    1421,    1474,    1475
     434,    1505,    1077,    1081,    1502,    1421,    1118,    1120,    1474
     435,     883,    1077,    1081,     877,    1504,    1505,    1502,    1503
     436,    1235,    1233,    1232,    1234,    1507,    1509,    1511,    1513
     437,    1507,    1509,    1511,    1513,    1506,    1508,    1510,    1512
     438,    1506,    1508,    1510,    1512,    1237,    1230,    1231,    1236
     439,    1113,    1114,    1112,     732,    1514,    1517,    1519,    1520
     440,    1514,    1517,    1519,    1520,    1515,    1516,    1518,    1521
     441,    1515,    1516,    1518,    1521,    1109,    1111,    1108,     733
     442,    1287,    1285,     732,    1112,    1522,    1524,    1520,    1519
     443,    1522,    1524,    1520,    1519,    1523,    1525,    1521,    1518
     444,    1523,    1525,    1521,    1518,    1281,    1283,     733,    1108
     445,    1153,     765,    1284,    1286,    1526,    1529,    1530,    1532
     446,    1526,    1529,    1530,    1532,    1527,    1528,    1531,    1533
     447,    1527,    1528,    1531,    1533,    1151,     763,    1282,    1280
     448,    1286,    1284,    1285,    1287,    1532,    1530,    1524,    1522
     449,    1532,    1530,    1524,    1522,    1533,    1531,    1525,    1523
     450,    1533,    1531,    1525,    1523,    1280,    1282,    1283,    1281
     451,    1438,    1441,    1139,     745,    1543,    1545,    1547,    1548
     452,    1543,    1545,    1547,    1548,    1542,    1544,    1546,    1549
     453,    1542,    1544,    1546,    1549,    1444,    1443,    1134,     744
     454,     739,    1140,    1440,    1439,    1551,    1553,    1555,    1557
     455,    1551,    1553,    1555,    1557,    1550,    1552,    1554,    1556
     456,    1550,    1552,    1554,    1556,     738,    1136,    1442,    1445
     457,    1439,    1440,    1441,    1438,    1557,    1555,    1545,    1543
     458,    1557,    1555,    1545,    1543,    1556,    1554,    1544,    1542
     459,    1556,    1554,    1544,    1542,    1445,    1442,    1443,    1444
     460,     743,    1141,    1233,    1235,    1560,    1559,    1509,    1507
     461,    1560,    1559,    1509,    1507,    1561,    1558,    1508,    1506
     462,    1561,    1558,    1508,    1506,     742,    1137,    1230,    1237
     463,    1234,    1232,    1113,     732,    1513,    1511,    1514,    1520
     464,    1513,    1511,    1514,    1520,    1512,    1510,    1515,    1521
     465,    1512,    1510,    1515,    1521,    1236,    1231,    1109,     733
     466,    1071,    1072,    1562,    1564,    1109,    1111,    1516,    1515
     467,    1564,    1562,    1563,    1565,    1515,    1516,    1517,    1514
     468,    1565,    1563,    1076,    1075,    1514,    1517,    1114,    1113
     469,    1071,    1072,    1076,    1075,    1564,    1562,    1563,    1565
     470,    1070,    1254,    1568,    1566,    1137,    1230,    1508,    1558
     471,    1566,    1568,    1569,    1567,    1558,    1508,    1509,    1559
     472,    1567,    1569,    1256,    1074,    1559,    1509,    1233,    1141
     473,    1070,    1254,    1256,    1074,    1566,    1568,    1569,    1567
     474,    1501,    1069,    1572,    1570,    1443,    1134,    1546,    1544
     475,    1570,    1572,    1573,    1571,    1544,    1546,    1547,    1545
     476,    1571,    1573,    1073,    1495,    1545,    1547,    1139,    1441
     477,    1501,    1069,    1073,    1495,    1570,    1572,    1573,    1571
     478,     895,    1500,    1576,    1574,    1136,    1442,    1554,    1552
     479,    1574,    1576,    1577,    1575,    1552,    1554,    1555,    1553
     480,    1575,    1577,    1494,     889,    1553,    1555,    1440,    1140
     481,     895,    1500,    1494,     889,    1574,    1576,    1577,    1575
     482,    1500,    1501,    1570,    1576,    1442,    1443,    1544,    1554
     483,    1576,    1570,    1571,    1577,    1554,    1544,    1545,    1555
     484,    1577,    1571,    1495,    1494,    1555,    1545,    1441,    1440
     485,    1500,    1501,    1495,    1494,    1576,    1570,    1571,    1577
     486,    1069,    1070,    1074,    1073,    1572,    1566,    1567,    1573
     487,    1111,    1072,    1562,    1516,    1108,     988,    1578,    1518
     488,    1516,    1562,    1563,    1517,    1518,    1578,    1579,    1519
     489,    1517,    1563,    1076,    1114,    1519,    1579,     987,    1112
     490,    1562,    1072,    1076,    1563,    1578,     988,     987,    1579
     491,    1532,    1582,    1322,    1286,    1526,    1580,    1096,    1153
     492,    1533,    1583,    1582,    1532,    1527,    1581,    1580,    1526
     493,    1280,    1320,    1583,    1533,    1151,    1095,    1581,    1527
     494,    1583,    1320,    1322,    1582,    1581,    1095,    1096,    1580
     495,    1584,    1097,    1098,    1585,    1586,     781,     782,    1587
     496,    1522,    1588,    1323,    1287,    1532,    1582,    1322,    1286
     497,    1523,    1589,    1588,    1522,    1533,    1583,    1582,    1532
     498,    1281,    1321,    1589,    1523,    1280,    1320,    1583,    1533
     499,    1589,    1321,    1323,    1588,    1583,    1320,    1322,    1582
     500,    1581,    1095,    1096,    1580,    1584,    1097,    1098,    1585
     501,    1519,    1579,     987,    1112,    1522,    1588,    1323,    1287
     502,    1518,    1578,    1579,    1519,    1523,    1589,    1588,    1522
     503,    1108,     988,    1578,    1518,    1281,    1321,    1589,    1523
     504,    1578,     988,     987,    1579,    1589,    1321,    1323,    1588
     505,    1254,    1255,    1590,    1568,    1230,    1231,    1510,    1508
     506,    1568,    1590,    1591,    1569,    1508,    1510,    1511,    1509
     507,    1569,    1591,    1257,    1256,    1509,    1511,    1232,    1233
     508,    1254,    1255,    1257,    1256,    1568,    1590,    1591,    1569
     509,    1255,    1071,    1564,    1590,    1231,    1109,    1515,    1510
     510,    1590,    1564,    1565,    1591,    1510,    1515,    1514,    1511
     511,    1591,    1565,    1075,    1257,    1511,    1514,    1113,    1232
     512,    1255,    1071,    1075,    1257,    1590,    1564,    1565,    1591
     513,    1312,    1306,    1307,    1313,    1592,    1594,    1596,    1598
     514,    1592,    1594,    1596,    1598,    1593,    1595,    1597,    1599
     515,    1593,    1595,    1597,    1599,    1317,    1314,    1315,    1316
     516,    1118,    1120,    1117,     735,    1600,    1603,    1605,    1606
     517,    1600,    1603,    1605,    1606,    1601,    1602,    1604,    1607
     518,    1601,    1602,    1604,    1607,    1122,    1123,    1121,     736
     519,    1168,    1174,    1175,    1169,    1608,    1610,    1612,    1614
     520,    1608,    1610,    1612,    1614,    1609,    1611,    1613,    1615
     521,    1609,    1611,    1613,    1615,    1171,    1172,    1173,    1170
     522,    1139,     745,    1548,    1547,    1616,    1619,    1620,    1622
     523,    1616,    1619,    1620,    1622,    1617,    1618,    1621,    1623
     524,    1617,    1618,    1621,    1623,    1141,     743,    1560,    1559
     525,    1546,    1549,     744,    1134,    1624,    1626,    1629,    1630
     526,    1624,    1626,    1629,    1630,    1625,    1627,    1628,    1631
     527,    1625,    1627,    1628,    1631,    1558,    1561,     742,    1137
     528,    1143,     756,    1306,    1312,    1632,    1635,    1594,    1592
     529,    1632,    1635,    1594,    1592,    1633,    1634,    1595,    1593
     530,    1633,    1634,    1595,    1593,    1144,     754,    1314,    1317
     531,    1367,    1368,    1369,    1366,    1644,    1646,    1648,    1650
     532,    1644,    1646,    1648,    1650,    1645,    1647,    1649,    1651
     533,    1645,    1647,    1649,    1651,    1373,    1374,    1375,    1372
     534,    1366,    1369,     741,    1135,    1650,    1648,    1653,    1654
     535,    1650,    1648,    1653,    1654,    1651,    1649,    1652,    1655
     536,    1651,    1649,    1652,    1655,    1372,    1375,     740,    1138
     537,    1134,     744,    1368,    1367,    1630,    1629,    1646,    1644
     538,    1630,    1629,    1646,    1644,    1631,    1628,    1647,    1645
     539,    1631,    1628,    1647,    1645,    1137,     742,    1374,    1373
     540,    1547,    1548,    1549,    1546,    1622,    1620,    1626,    1624
     541,    1622,    1620,    1626,    1624,    1623,    1621,    1627,    1625
     542,    1623,    1621,    1627,    1625,    1559,    1560,    1561,    1558
     543,    1169,    1175,     745,    1139,    1614,    1612,    1619,    1616
     544,    1614,    1612,    1619,    1616,    1615,    1613,    1618,    1617
     545,    1615,    1613,    1618,    1617,    1170,    1173,     743,    1141
     546,    1118,     735,    1174,    1168,    1600,    1606,    1610,    1608
     547,    1600,    1606,    1610,    1608,    1601,    1607,    1611,    1609
     548,    1601,    1607,    1611,    1609,    1122,     736,    1172,    1171
     549,    1313,    1307,     735,    1117,    1598,    1596,    1606,    1605
     550,    1598,    1596,    1606,    1605,    1599,    1597,    1607,    1604
     551,    1599,    1597,    1607,    1604,    1316,    1315,     736,    1121
     552,    1199,    1658,    1656,    1198,    1169,    1614,    1608,    1168
     553,    1658,    1659,    1657,    1656,    1614,    1615,    1609,    1608
     554,    1659,    1206,    1207,    1657,    1615,    1170,    1171,    1609
     555,    1199,    1206,    1207,    1198,    1658,    1659,    1657,    1656
     556,    1573,    1662,    1660,    1073,    1547,    1622,    1616,    1139
     557,    1662,    1663,    1661,    1660,    1622,    1623,    1617,    1616
     558,    1663,    1567,    1074,    1661,    1623,    1559,    1141,    1617
     559,    1573,    1567,    1074,    1073,    1662,    1663,    1661,    1660
     560,    1069,    1666,    1664,    1572,    1134,    1630,    1624,    1546
     561,    1666,    1667,    1665,    1664,    1630,    1631,    1625,    1624
     562,    1667,    1070,    1566,    1665,    1631,    1137,    1558,    1625
     563,    1069,    1070,    1566,    1572,    1666,    1667,    1665,    1664
     564,    1410,    1670,    1668,    1411,    1366,    1650,    1644,    1367
     565,    1670,    1671,    1669,    1668,    1650,    1651,    1645,    1644
     566,    1671,    1414,    1415,    1669,    1651,    1372,    1373,    1645
     567,    1410,    1414,    1415,    1411,    1670,    1671,    1669,    1668
     568,     809,    1672,    1670,    1410,    1135,    1654,    1650,    1366
     569,    1672,    1673,    1671,    1670,    1654,    1655,    1651,    1650
     570,    1673,     815,    1414,    1671,    1655,    1138,    1372,    1651
     571,     809,     815,    1414,    1410,    1672,    1673,    1671,    1670
     572,    1411,    1668,    1666,    1069,    1367,    1644,    1630,    1134
     573,    1668,    1669,    1667,    1666,    1644,    1645,    1631,    1630
     574,    1669,    1415,    1070,    1667,    1645,    1373,    1137,    1631
     575,    1411,    1415,    1070,    1069,    1668,    1669,    1667,    1666
     576,    1675,    1674,    1092,    1091,    1677,    1676,     785,     786
     577,    1312,    1592,    1680,    1332,    1143,    1632,    1678,    1087
     578,    1592,    1593,    1681,    1680,    1632,    1633,    1679,    1678
     579,    1593,    1317,    1337,    1681,    1633,    1144,    1088,    1679
     580,    1680,    1681,    1337,    1332,    1678,    1679,    1088,    1087
     581,    1678,    1679,    1088,    1087,    1675,    1674,    1092,    1091
     582,    1572,    1664,    1662,    1573,    1546,    1624,    1622,    1547
     583,    1664,    1665,    1663,    1662,    1624,    1625,    1623,    1622
     584,    1665,    1566,    1567,    1663,    1625,    1558,    1559,    1623
     585,    1572,    1566,    1567,    1573,    1664,    1665,    1663,    1662
     586,    1073,    1660,    1658,    1199,    1139,    1616,    1614,    1169
     587,    1660,    1661,    1659,    1658,    1616,    1617,    1615,    1614
     588,    1661,    1074,    1206,    1659,    1617,    1141,    1170,    1615
     589,    1073,    1074,    1206,    1199,    1660,    1661,    1659,    1658
     590,    1077,    1682,    1684,    1081,    1118,    1600,    1603,    1120
     591,    1682,    1683,    1685,    1684,    1600,    1601,    1602,    1603
     592,    1683,    1078,    1082,    1685,    1601,    1122,    1123,    1602
     593,    1077,    1078,    1082,    1081,    1682,    1683,    1685,    1684
     594,    1198,    1656,    1682,    1077,    1168,    1608,    1600,    1118
     595,    1656,    1657,    1683,    1682,    1608,    1609,    1601,    1600
     596,    1657,    1207,    1078,    1683,    1609,    1171,    1122,    1601
     597,    1198,    1207,    1078,    1077,    1656,    1657,    1683,    1682
     598,    1602,    1123,    1082,    1685,    1604,    1121,     984,    1686
     599,    1603,    1602,    1685,    1684,    1605,    1604,    1686,    1687
     600,    1120,    1603,    1684,    1081,    1117,    1605,    1687,     983
     601,    1684,    1685,    1082,    1081,    1687,    1686,     984,     983
     602,    1117,    1605,    1687,     983,    1313,    1598,    1688,    1333
     603,    1605,    1604,    1686,    1687,    1598,    1599,    1689,    1688
     604,    1604,    1121,     984,    1686,    1599,    1316,    1336,    1689
     605,    1687,    1686,     984,     983,    1688,    1689,    1336,    1333
     606,    1313,    1598,    1688,    1333,    1312,    1592,    1680,    1332
     607,    1598,    1599,    1689,    1688,    1592,    1593,    1681,    1680
     608,    1599,    1316,    1336,    1689,    1593,    1317,    1337,    1681
     609,    1688,    1689,    1336,    1333,    1680,    1681,    1337,    1332
     610,     746,    1130,    1189,    1190,    1690,    1693,    1695,    1697
     611,    1690,    1693,    1695,    1697,    1691,    1692,    1694,    1696
     612,    1691,    1692,    1694,    1696,     747,    1127,    1181,    1183
     613,    1245,    1242,    1131,     746,    1699,    1701,    1703,    1690
     614,    1699,    1701,    1703,    1690,    1698,    1700,    1702,    1691
     615,    1698,    1700,    1702,    1691,    1238,    1240,    1128,     747
     616,    1244,    1243,    1242,    1245,    1705,    1707,    1701,    1699
     617,    1705,    1707,    1701,    1699,    1704,    1706,    1700,    1698
     618,    1704,    1706,    1700,    1698,    1239,    1241,    1240,    1238
     619,    1390,    1389,    1388,    1391,    1709,    1711,    1713,    1715
     620,    1709,    1711,    1713,    1715,    1708,    1710,    1712,    1714
     621,    1708,    1710,    1712,    1714,    1387,    1385,    1384,    1386
     622,    1391,    1388,    1158,     758,    1715,    1713,    1717,    1718
     623,    1715,    1713,    1717,    1718,    1714,    1712,    1716,    1719
     624,    1714,    1712,    1716,    1719,    1386,    1384,    1155,     759
     625,    1190,    1189,    1188,    1191,    1697,    1695,    1721,    1723
     626,    1697,    1695,    1721,    1723,    1696,    1694,    1720,    1722
     627,    1696,    1694,    1720,    1722,    1183,    1181,    1180,    1182
     628,    1191,    1188,    1159,     761,    1723,    1721,    1725,    1726
     629,    1723,    1721,    1725,    1726,    1722,    1720,    1724,    1727
     630,    1722,    1720,    1724,    1727,    1182,    1180,    1156,     766
     631,     761,    1159,    1539,    1540,    1726,    1725,    1729,    1731
     632,    1726,    1725,    1729,    1731,    1727,    1724,    1728,    1730
     633,    1727,    1724,    1728,    1730,     766,    1156,    1537,    1535
     634,    1540,    1539,    1538,    1541,    1731,    1729,    1733,    1735
     635,    1731,    1729,    1733,    1735,    1730,    1728,    1732,    1734
     636,    1730,    1728,    1732,    1734,    1535,    1537,    1536,    1534
     637,    1541,    1538,    1157,     762,    1735,    1733,    1737,    1738
     638,    1735,    1733,    1737,    1738,    1734,    1732,    1736,    1739
     639,    1734,    1732,    1736,    1739,    1534,    1536,    1154,     764
     640,     762,    1157,    1389,    1390,    1738,    1737,    1711,    1709
     641,    1738,    1737,    1711,    1709,    1739,    1736,    1710,    1708
     642,    1739,    1736,    1710,    1708,     764,    1154,    1385,    1387
     643,     749,    1148,    1471,    1472,    1741,    1742,    1745,    1747
     644,    1741,    1742,    1745,    1747,    1740,    1743,    1744,    1746
     645,    1740,    1743,    1744,    1746,     753,    1145,    1469,    1467
     646,     751,    1150,    1243,    1244,    1748,    1751,    1707,    1705
     647,    1748,    1751,    1707,    1705,    1749,    1750,    1706,    1704
     648,    1749,    1750,    1706,    1704,     755,    1147,    1241,    1239
     649,    1643,    1640,    1150,     751,    1753,    1755,    1751,    1748
     650,    1753,    1755,    1751,    1748,    1752,    1754,    1750,    1749
     651,    1752,    1754,    1750,    1749,    1638,    1636,    1147,     755
     652,    1642,    1641,    1640,    1643,    1757,    1759,    1755,    1753
     653,    1757,    1759,    1755,    1753,    1756,    1758,    1754,    1752
     654,    1756,    1758,    1754,    1752,    1639,    1637,    1636,    1638
     655,     750,    1149,    1641,    1642,    1760,    1763,    1759,    1757
     656,    1760,    1763,    1759,    1757,    1761,    1762,    1758,    1756
     657,    1761,    1762,    1758,    1756,     757,    1146,    1637,    1639
     658,    1473,    1470,    1149,     750,    1765,    1767,    1763,    1760
     659,    1765,    1767,    1763,    1760,    1764,    1766,    1762,    1761
     660,    1764,    1766,    1762,    1761,    1466,    1468,    1146,     757
     661,    1472,    1471,    1470,    1473,    1747,    1745,    1767,    1765
     662,    1747,    1745,    1767,    1765,    1746,    1744,    1766,    1764
     663,    1746,    1744,    1766,    1764,    1467,    1469,    1468,    1466
     664,    1130,     746,    1131,    1132,    1693,    1690,    1703,    1768
     665,    1693,    1690,    1703,    1768,    1692,    1691,    1702,    1769
     666,    1692,    1691,    1702,    1769,    1127,     747,    1128,    1129
     667,    1240,    1128,    1093,    1262,    1700,    1702,    1772,    1770
     668,    1700,    1702,    1772,    1770,    1701,    1703,    1773,    1771
     669,    1701,    1703,    1773,    1771,    1242,    1131,     780,    1264
     670,    1770,    1772,    1093,    1262,    1771,    1773,     780,    1264
     671,    1742,    1745,    1776,    1774,    1148,    1471,    1487,     779
     672,    1743,    1744,    1777,    1775,    1742,    1745,    1776,    1774
     673,    1145,    1469,    1485,     876,    1743,    1744,    1777,    1775
     674,    1775,    1777,    1485,     876,    1774,    1776,    1487,     779
     675,    1469,    1468,    1484,    1485,    1744,    1766,    1778,    1777
     676,    1744,    1766,    1778,    1777,    1745,    1767,    1779,    1776
     677,    1745,    1767,    1779,    1776,    1471,    1470,    1486,    1487
     678,    1777,    1778,    1484,    1485,    1776,    1779,    1486,    1487
     679,    1468,    1146,    1091,    1484,    1766,    1762,    1780,    1778
     680,    1766,    1762,    1780,    1778,    1767,    1763,    1781,    1779
     681,    1767,    1763,    1781,    1779,    1470,    1149,     786,    1486
     682,    1778,    1780,    1091,    1484,    1779,    1781,     786,    1486
     683,    1146,    1637,    1675,    1091,    1762,    1758,    1782,    1780
     684,    1762,    1758,    1782,    1780,    1763,    1759,    1783,    1781
     685,    1763,    1759,    1783,    1781,    1149,    1641,    1677,     786
     686,    1780,    1782,    1675,    1091,    1781,    1783,    1677,     786
     687,    1637,    1636,    1674,    1675,    1758,    1754,    1784,    1782
     688,    1758,    1754,    1784,    1782,    1759,    1755,    1785,    1783
     689,    1759,    1755,    1785,    1783,    1641,    1640,    1676,    1677
     690,    1782,    1784,    1674,    1675,    1783,    1785,    1676,    1677
     691,    1636,    1147,    1092,    1674,    1754,    1750,    1786,    1784
     692,    1754,    1750,    1786,    1784,    1755,    1751,    1787,    1785
     693,    1755,    1751,    1787,    1785,    1640,    1150,     785,    1676
     694,    1784,    1786,    1092,    1674,    1785,    1787,     785,    1676
     695,    1147,    1241,    1263,    1092,    1750,    1706,    1788,    1786
     696,    1750,    1706,    1788,    1786,    1751,    1707,    1789,    1787
     697,    1751,    1707,    1789,    1787,    1150,    1243,    1265,     785
     698,    1786,    1788,    1263,    1092,    1787,    1789,    1265,     785
     699,    1384,    1402,    1403,    1385,    1712,    1792,    1790,    1710
     700,    1712,    1792,    1790,    1710,    1713,    1793,    1791,    1711
     701,    1713,    1793,    1791,    1711,    1388,    1404,    1405,    1389
     702,    1792,    1402,    1403,    1790,    1793,    1404,    1405,    1791
     703,    1155,     834,    1402,    1384,    1716,    1794,    1792,    1712
     704,    1716,    1794,    1792,    1712,    1717,    1795,    1793,    1713
     705,    1717,    1795,    1793,    1713,    1158,     768,    1404,    1388
     706,    1794,     834,    1402,    1792,    1795,     768,    1404,    1793
     707,    1385,    1403,    1097,    1154,    1710,    1790,    1796,    1736
     708,    1710,    1790,    1796,    1736,    1711,    1791,    1797,    1737
     709,    1711,    1791,    1797,    1737,    1389,    1405,     781,    1157
     710,    1790,    1403,    1097,    1796,    1791,    1405,     781,    1797
     711,    1536,    1584,    1585,    1537,    1732,    1800,    1798,    1728
     712,    1732,    1800,    1798,    1728,    1733,    1801,    1799,    1729
     713,    1733,    1801,    1799,    1729,    1538,    1586,    1587,    1539
     714,    1800,    1584,    1585,    1798,    1801,    1586,    1587,    1799
     715,    1154,    1097,    1584,    1536,    1736,    1796,    1800,    1732
     716,    1736,    1796,    1800,    1732,    1737,    1797,    1801,    1733
     717,    1737,    1797,    1801,    1733,    1157,     781,    1586,    1538
     718,    1796,    1097,    1584,    1800,    1797,     781,    1586,    1801
     719,    1537,    1585,    1098,    1156,    1728,    1798,    1802,    1724
     720,    1728,    1798,    1802,    1724,    1729,    1799,    1803,    1725
     721,    1729,    1799,    1803,    1725,    1539,    1587,     782,    1159
     722,    1798,    1585,    1098,    1802,    1799,    1587,     782,    1803
     723,    1180,    1194,    1195,    1181,    1720,    1806,    1804,    1694
     724,    1720,    1806,    1804,    1694,    1721,    1807,    1805,    1695
     725,    1721,    1807,    1805,    1695,    1188,    1196,    1197,    1189
     726,    1806,    1194,    1195,    1804,    1807,    1196,    1197,    1805
     727,    1156,    1098,    1194,    1180,    1724,    1802,    1806,    1720
     728,    1724,    1802,    1806,    1720,    1725,    1803,    1807,    1721
     729,    1725,    1803,    1807,    1721,    1159,     782,    1196,    1188
     730,    1802,    1098,    1194,    1806,    1803,     782,    1196,    1807
     731,    1241,    1240,    1262,    1263,    1706,    1700,    1770,    1788
     732,    1706,    1700,    1770,    1788,    1707,    1701,    1771,    1789
     733,    1707,    1701,    1771,    1789,    1243,    1242,    1264,    1265
     734,    1788,    1770,    1262,    1263,    1789,    1771,    1264,    1265
     735,    1703,    1768,    1808,    1773,    1131,    1132,     784,     780
     736,    1702,    1769,    1809,    1772,    1703,    1768,    1808,    1773
     737,    1128,    1129,    1094,    1093,    1702,    1769,    1809,    1772
     738,    1772,    1809,    1094,    1093,    1773,    1808,     784,     780
     739,    1181,    1195,    1086,    1127,    1694,    1804,    1810,    1692
     740,    1694,    1804,    1810,    1692,    1695,    1805,    1811,    1693
     741,    1695,    1805,    1811,    1693,    1189,    1197,     783,    1130
     742,    1804,    1195,    1086,    1810,    1805,    1197,     783,    1811
     743,    1127,    1086,    1094,    1129,    1692,    1810,    1809,    1769
     744,    1692,    1810,    1809,    1769,    1693,    1811,    1808,    1768
     745,    1693,    1811,    1808,    1768,    1130,     783,     784,    1132
     746,    1810,    1086,    1094,    1809,    1811,     783,     784,    1808
     747,    1239,    1241,    1240,    1238,    1813,    1815,    1817,    1819
     748,    1813,    1815,    1817,    1819,    1812,    1814,    1816,    1818
     749,    1812,    1814,    1816,    1818,    1221,    1219,    1218,    1220
     750,    1127,     747,    1128,    1129,    1820,    1822,    1824,    1826
     751,    1820,    1822,    1824,    1826,    1821,    1823,    1825,    1827
     752,    1821,    1823,    1825,    1827,    1124,     748,    1125,    1126
     753,     747,    1127,    1181,    1183,    1822,    1820,    1829,    1831
     754,    1822,    1820,    1829,    1831,    1823,    1821,    1828,    1830
     755,    1823,    1821,    1828,    1830,     748,    1124,    1179,    1177
     756,    1183,    1181,    1180,    1182,    1831,    1829,    1833,    1835
     757,    1831,    1829,    1833,    1835,    1830,    1828,    1832,    1834
     758,    1830,    1828,    1832,    1834,    1177,    1179,    1178,    1176
     759,    1182,    1180,    1156,     766,    1835,    1833,    1837,    1838
     760,    1835,    1833,    1837,    1838,    1834,    1832,    1836,    1839
     761,    1834,    1832,    1836,    1839,    1176,    1178,    1153,     765
     762,     766,    1156,    1537,    1535,    1838,    1837,    1841,    1843
     763,    1838,    1837,    1841,    1843,    1839,    1836,    1840,    1842
     764,    1839,    1836,    1840,    1842,     765,    1153,    1526,    1529
     765,     764,    1154,    1385,    1387,    1844,    1847,    1849,    1851
     766,    1844,    1847,    1849,    1851,    1845,    1846,    1848,    1850
     767,    1845,    1846,    1848,    1850,     763,    1151,    1376,    1379
     768,    1386,    1384,    1155,     759,    1853,    1855,    1857,    1858
     769,    1853,    1855,    1857,    1858,    1852,    1854,    1856,    1859
     770,    1852,    1854,    1856,    1859,    1378,    1377,    1152,     760
     771,    1387,    1385,    1384,    1386,    1851,    1849,    1855,    1853
     772,    1851,    1849,    1855,    1853,    1850,    1848,    1854,    1852
     773,    1850,    1848,    1854,    1852,    1379,    1376,    1377,    1378
     774,    1535,    1537,    1536,    1534,    1843,    1841,    1861,    1863
     775,    1843,    1841,    1861,    1863,    1842,    1840,    1860,    1862
     776,    1842,    1840,    1860,    1862,    1529,    1526,    1527,    1528
     777,    1534,    1536,    1154,     764,    1863,    1861,    1847,    1844
     778,    1863,    1861,    1847,    1844,    1862,    1860,    1846,    1845
     779,    1862,    1860,    1846,    1845,    1528,    1527,    1151,     763
     780,    1639,    1637,    1636,    1638,    1865,    1867,    1869,    1871
     781,    1865,    1867,    1869,    1871,    1864,    1866,    1868,    1870
     782,    1864,    1866,    1868,    1870,    1635,    1632,    1633,    1634
     783,    1638,    1636,    1147,     755,    1871,    1869,    1873,    1874
     784,    1871,    1869,    1873,    1874,    1870,    1868,    1872,    1875
     785,    1870,    1868,    1872,    1875,    1634,    1633,    1144,     754
     786,     757,    1146,    1637,    1639,    1876,    1879,    1867,    1865
     787,    1876,    1879,    1867,    1865,    1877,    1878,    1866,    1864
     788,    1877,    1878,    1866,    1864,     756,    1143,    1632,    1635
     789,    1466,    1468,    1146,     757,    1881,    1883,    1879,    1876
     790,    1881,    1883,    1879,    1876,    1880,    1882,    1878,    1877
     791,    1880,    1882,    1878,    1877,    1460,    1459,    1143,     756
     792,     753,    1145,    1469,    1467,    1885,    1886,    1889,    1891
     793,    1885,    1886,    1889,    1891,    1884,    1887,    1888,    1890
     794,    1884,    1887,    1888,    1890,     752,    1142,    1458,    1461
     795,    1467,    1469,    1468,    1466,    1891,    1889,    1883,    1881
     796,    1891,    1889,    1883,    1881,    1890,    1888,    1882,    1880
     797,    1890,    1888,    1882,    1880,    1461,    1458,    1459,    1460
     798,     755,    1147,    1241,    1239,    1874,    1873,    1815,    1813
     799,    1874,    1873,    1815,    1813,    1875,    1872,    1814,    1812
     800,    1875,    1872,    1814,    1812,     754,    1144,    1219,    1221
     801,    1238,    1240,    1128,     747,    1819,    1817,    1824,    1822
     802,    1819,    1817,    1824,    1822,    1818,    1816,    1825,    1823
     803,    1818,    1816,    1825,    1823,    1220,    1218,    1125,     748
     804,    1824,    1826,    1892,    1894,    1128,    1129,    1094,    1093
     805,    1825,    1827,    1893,    1895,    1824,    1826,    1892,    1894
     806,    1125,    1126,    1090,    1089,    1825,    1827,    1893,    1895
     807,    1895,    1893,    1090,    1089,    1894,    1892,    1094,    1093
     808,    1633,    1144,    1088,    1679,    1868,    1872,    1898,    1896
     809,    1868,    1872,    1898,    1896,    1869,    1873,    1899,    1897
     810,    1869,    1873,    1899,    1897,    1636,    1147,    1092,    1674
     811,    1896,    1898,    1088,    1679,    1897,    1899,    1092,    1674
     812,    1632,    1633,    1679,    1678,    1866,    1868,    1896,    1900
     813,    1866,    1868,    1896,    1900,    1867,    1869,    1897,    1901
     814,    1867,    1869,    1897,    1901,    1637,    1636,    1674,    1675
     815,    1900,    1896,    1679,    1678,    1901,    1897,    1674,    1675
     816,    1143,    1632,    1678,    1087,    1878,    1866,    1900,    1902
     817,    1878,    1866,    1900,    1902,    1879,    1867,    1901,    1903
     818,    1879,    1867,    1901,    1903,    1146,    1637,    1675,    1091
     819,    1902,    1900,    1678,    1087,    1903,    1901,    1675,    1091
     820,    1458,    1459,    1481,    1480,    1888,    1882,    1906,    1904
     821,    1888,    1882,    1906,    1904,    1889,    1883,    1907,    1905
     822,    1889,    1883,    1907,    1905,    1469,    1468,    1484,    1485
     823,    1904,    1906,    1481,    1480,    1905,    1907,    1484,    1485
     824,    1886,    1889,    1905,    1908,    1145,    1469,    1485,     876
     825,    1887,    1888,    1904,    1909,    1886,    1889,    1905,    1908
     826,    1142,    1458,    1480,     875,    1887,    1888,    1904,    1909
     827,    1909,    1904,    1480,     875,    1908,    1905,    1485,     876
     828,    1459,    1143,    1087,    1481,    1882,    1878,    1902,    1906
     829,    1882,    1878,    1902,    1906,    1883,    1879,    1903,    1907
     830,    1883,    1879,    1903,    1907,    1468,    1146,    1091,    1484
     831,    1906,    1902,    1087,    1481,    1907,    1903,    1091,    1484
     832,    1144,    1219,    1261,    1088,    1872,    1814,    1910,    1898
     833,    1872,    1814,    1910,    1898,    1873,    1815,    1911,    1899
     834,    1873,    1815,    1911,    1899,    1147,    1241,    1263,    1092
     835,    1898,    1910,    1261,    1088,    1899,    1911,    1263,    1092
     836,    1829,    1914,    1912,    1820,    1181,    1195,    1086,    1127
     837,    1828,    1915,    1913,    1821,    1829,    1914,    1912,    1820
     838,    1179,    1193,    1085,    1124,    1828,    1915,    1913,    1821
     839,    1915,    1193,    1085,    1913,    1914,    1195,    1086,    1912
     840,    1178,    1192,    1193,    1179,    1832,    1916,    1915,    1828
     841,    1832,    1916,    1915,    1828,    1833,    1917,    1914,    1829
     842,    1833,    1917,    1914,    1829,    1180,    1194,    1195,    1181
     843,    1916,    1192,    1193,    1915,    1917,    1194,    1195,    1914
     844,    1153,    1096,    1192,    1178,    1836,    1918,    1916,    1832
     845,    1836,    1918,    1916,    1832,    1837,    1919,    1917,    1833
     846,    1837,    1919,    1917,    1833,    1156,    1098,    1194,    1180
     847,    1918,    1096,    1192,    1916,    1919,    1098,    1194,    1917
     848,    1376,    1398,    1095,    1151,    1848,    1922,    1920,    1846
     849,    1848,    1922,    1920,    1846,    1849,    1923,    1921,    1847
     850,    1849,    1923,    1921,    1847,    1385,    1403,    1097,    1154
     851,    1922,    1398,    1095,    1920,    1923,    1403,    1097,    1921
     852,    1152,     833,    1399,    1377,    1856,    1926,    1924,    1854
     853,    1856,    1926,    1924,    1854,    1857,    1927,    1925,    1855
     854,    1857,    1927,    1925,    1855,    1155,     834,    1402,    1384
     855,    1926,     833,    1399,    1924,    1927,     834,    1402,    1925
     856,    1377,    1399,    1398,    1376,    1854,    1924,    1922,    1848
     857,    1854,    1924,    1922,    1848,    1855,    1925,    1923,    1849
     858,    1855,    1925,    1923,    1849,    1384,    1402,    1403,    1385
     859,    1924,    1399,    1398,    1922,    1925,    1402,    1403,    1923
     860,    1151,    1095,    1581,    1527,    1846,    1920,    1928,    1860
     861,    1846,    1920,    1928,    1860,    1847,    1921,    1929,    1861
     862,    1847,    1921,    1929,    1861,    1154,    1097,    1584,    1536
     863,    1920,    1095,    1581,    1928,    1921,    1097,    1584,    1929
     864,    1527,    1581,    1580,    1526,    1860,    1928,    1930,    1840
     865,    1860,    1928,    1930,    1840,    1861,    1929,    1931,    1841
     866,    1861,    1929,    1931,    1841,    1536,    1584,    1585,    1537
     867,    1928,    1581,    1580,    1930,    1929,    1584,    1585,    1931
     868,    1526,    1580,    1096,    1153,    1840,    1930,    1918,    1836
     869,    1840,    1930,    1918,    1836,    1841,    1931,    1919,    1837
     870,    1841,    1931,    1919,    1837,    1537,    1585,    1098,    1156
     871,    1930,    1580,    1096,    1918,    1931,    1585,    1098,    1919
     872,    1820,    1912,    1892,    1826,    1127,    1086,    1094,    1129
     873,    1821,    1913,    1893,    1827,    1820,    1912,    1892,    1826
     874,    1124,    1085,    1090,    1126,    1821,    1913,    1893,    1827
     875,    1913,    1085,    1090,    1893,    1912,    1086,    1094,    1892
     876,    1218,    1125,    1089,    1260,    1816,    1825,    1895,    1932
     877,    1816,    1825,    1895,    1932,    1817,    1824,    1894,    1933
     878,    1817,    1824,    1894,    1933,    1240,    1128,    1093,    1262
     879,    1932,    1895,    1089,    1260,    1933,    1894,    1093,    1262
     880,    1219,    1218,    1260,    1261,    1814,    1816,    1932,    1910
     881,    1814,    1816,    1932,    1910,    1815,    1817,    1933,    1911
     882,    1815,    1817,    1933,    1911,    1241,    1240,    1262,    1263
     883,    1910,    1932,    1260,    1261,    1911,    1933,    1262,    1263
     884,       1,      82,     210,       9,      10,      90,     218,      74
     885,      82,      83,     211,     210,      90,      91,     219,     218
     886,      83,      84,     212,     211,      91,      92,     220,     219
     887,      84,      85,     213,     212,      92,      93,     221,     220
     888,      85,      86,     214,     213,      93,      94,     222,     221
     889,      86,      87,     215,     214,      94,      95,     223,     222
     890,      87,      88,     216,     215,      95,      96,     224,     223
     891,      88,      89,     217,     216,      96,      97,     225,     224
     892,      89,     737,    1370,     217,      97,    1455,    1450,     225
     893,       9,     210,     202,       8,      74,     218,     226,      75
     894,     210,     211,     203,     202,     218,     219,     227,     226
     895,     211,     212,     204,     203,     219,     220,     228,     227
     896,     212,     213,     205,     204,     220,     221,     229,     228
     897,     213,     214,     206,     205,     221,     222,     230,     229
     898,     214,     215,     207,     206,     222,     223,     231,     230
     899,     215,     216,     208,     207,     223,     224,     232,     231
     900,     216,     217,     209,     208,     224,     225,     233,     232
     901,     217,    1370,    1371,     209,     225,    1450,    1446,     233
     902,       8,     202,     194,       7,      75,     226,     234,      76
     903,     202,     203,     195,     194,     226,     227,     235,     234
     904,     203,     204,     196,     195,     227,     228,     236,     235
     905,     204,     205,     197,     196,     228,     229,     237,     236
     906,     205,     206,     198,     197,     229,     230,     238,     237
     907,     206,     207,     199,     198,     230,     231,     239,     238
     908,     207,     208,     200,     199,     231,     232,     240,     239
     909,     208,     209,     201,     200,     232,     233,     241,     240
     910,     209,    1371,     738,     201,     233,    1446,    1445,     241
     911,       7,     194,     186,       6,      76,     234,     242,      77
     912,     194,     195,     187,     186,     234,     235,     243,     242
     913,     195,     196,     188,     187,     235,     236,     244,     243
     914,     196,     197,     189,     188,     236,     237,     245,     244
     915,     197,     198,     190,     189,     237,     238,     246,     245
     916,     198,     199,     191,     190,     238,     239,     247,     246
     917,     199,     200,     192,     191,     239,     240,     248,     247
     918,     200,     201,     193,     192,     240,     241,     249,     248
     919,     201,     738,    1550,     193,     241,    1445,    1556,     249
     920,       6,     186,     178,       5,      77,     242,     250,      78
     921,     186,     187,     179,     178,     242,     243,     251,     250
     922,     187,     188,     180,     179,     243,     244,     252,     251
     923,     188,     189,     181,     180,     244,     245,     253,     252
     924,     189,     190,     182,     181,     245,     246,     254,     253
     925,     190,     191,     183,     182,     246,     247,     255,     254
     926,     191,     192,     184,     183,     247,     248,     256,     255
     927,     192,     193,     185,     184,     248,     249,     257,     256
     928,     193,    1550,    1551,     185,     249,    1556,    1557,     257
     929,       5,     178,     170,       4,      78,     250,     258,      79
     930,     178,     179,     171,     170,     250,     251,     259,     258
     931,     179,     180,     172,     171,     251,     252,     260,     259
     932,     180,     181,     173,     172,     252,     253,     261,     260
     933,     181,     182,     174,     173,     253,     254,     262,     261
     934,     182,     183,     175,     174,     254,     255,     263,     262
     935,     183,     184,     176,     175,     255,     256,     264,     263
     936,     184,     185,     177,     176,     256,     257,     265,     264
     937,     185,    1551,     739,     177,     257,    1557,    1439,     265
     938,       4,     170,     162,       3,      79,     258,     266,      80
     939,     170,     171,     163,     162,     258,     259,     267,     266
     940,     171,     172,     164,     163,     259,     260,     268,     267
     941,     172,     173,     165,     164,     260,     261,     269,     268
     942,     173,     174,     166,     165,     261,     262,     270,     269
     943,     174,     175,     167,     166,     262,     263,     271,     270
     944,     175,     176,     168,     167,     263,     264,     272,     271
     945,     176,     177,     169,     168,     264,     265,     273,     272
     946,     177,     739,    1186,     169,     265,    1439,    1436,     273
     947,       3,     162,     154,       2,      80,     266,     274,      81
     948,     162,     163,     155,     154,     266,     267,     275,     274
     949,     163,     164,     156,     155,     267,     268,     276,     275
     950,     164,     165,     157,     156,     268,     269,     277,     276
     951,     165,     166,     158,     157,     269,     270,     278,     277
     952,     166,     167,     159,     158,     270,     271,     279,     278
     953,     167,     168,     160,     159,     271,     272,     280,     279
     954,     168,     169,     161,     160,     272,     273,     281,     280
     955,     169,    1186,    1187,     161,     273,    1436,    1424,     281
     956,       2,     154,    1741,     749,      81,     274,    1747,    1472
     957,     154,     155,    1740,    1741,     274,     275,    1746,    1747
     958,     155,     156,     753,    1740,     275,     276,    1467,    1746
     959,     156,     157,    1885,     753,     276,     277,    1891,    1467
     960,     157,     158,    1884,    1885,     277,     278,    1890,    1891
     961,     158,     159,     752,    1884,     278,     279,    1461,    1890
     962,     159,     160,    1309,     752,     279,     280,    1462,    1461
     963,     160,     161,    1308,    1309,     280,     281,    1430,    1462
     964,     161,    1187,     734,    1308,     281,    1424,    1422,    1430
     965,      10,      90,     218,      74,      11,      98,     282,      66
     966,      90,      91,     219,     218,      98,      99,     283,     282
     967,      91,      92,     220,     219,      99,     100,     284,     283
     968,      92,      93,     221,     220,     100,     101,     285,     284
     969,      93,      94,     222,     221,     101,     102,     286,     285
     970,      94,      95,     223,     222,     102,     103,     287,     286
     971,      95,      96,     224,     223,     103,     104,     288,     287
     972,      96,      97,     225,     224,     104,     105,     289,     288
     973,      97,    1455,    1450,     225,     105,    1454,    1451,     289
     974,      74,     218,     226,      75,      66,     282,     290,      67
     975,     218,     219,     227,     226,     282,     283,     291,     290
     976,     219,     220,     228,     227,     283,     284,     292,     291
     977,     220,     221,     229,     228,     284,     285,     293,     292
     978,     221,     222,     230,     229,     285,     286,     294,     293
     979,     222,     223,     231,     230,     286,     287,     295,     294
     980,     223,     224,     232,     231,     287,     288,     296,     295
     981,     224,     225,     233,     232,     288,     289,     297,     296
     982,     225,    1450,    1446,     233,     289,    1451,    1447,     297
     983,      75,     226,     234,      76,      67,     290,     298,      68
     984,     226,     227,     235,     234,     290,     291,     299,     298
     985,     227,     228,     236,     235,     291,     292,     300,     299
     986,     228,     229,     237,     236,     292,     293,     301,     300
     987,     229,     230,     238,     237,     293,     294,     302,     301
     988,     230,     231,     239,     238,     294,     295,     303,     302
     989,     231,     232,     240,     239,     295,     296,     304,     303
     990,     232,     233,     241,     240,     296,     297,     305,     304
     991,     233,    1446,    1445,     241,     297,    1447,    1444,     305
     992,      76,     234,     242,      77,      68,     298,     306,      69
     993,     234,     235,     243,     242,     298,     299,     307,     306
     994,     235,     236,     244,     243,     299,     300,     308,     307
     995,     236,     237,     245,     244,     300,     301,     309,     308
     996,     237,     238,     246,     245,     301,     302,     310,     309
     997,     238,     239,     247,     246,     302,     303,     311,     310
     998,     239,     240,     248,     247,     303,     304,     312,     311
     999,     240,     241,     249,     248,     304,     305,     313,     312
    1000,     241,    1445,    1556,     249,     305,    1444,    1542,     313
    1001,      77,     242,     250,      78,      69,     306,     314,      70
    1002,     242,     243,     251,     250,     306,     307,     315,     314
    1003,     243,     244,     252,     251,     307,     308,     316,     315
    1004,     244,     245,     253,     252,     308,     309,     317,     316
    1005,     245,     246,     254,     253,     309,     310,     318,     317
    1006,     246,     247,     255,     254,     310,     311,     319,     318
    1007,     247,     248,     256,     255,     311,     312,     320,     319
    1008,     248,     249,     257,     256,     312,     313,     321,     320
    1009,     249,    1556,    1557,     257,     313,    1542,    1543,     321
    1010,      78,     250,     258,      79,      70,     314,     322,      71
    1011,     250,     251,     259,     258,     314,     315,     323,     322
    1012,     251,     252,     260,     259,     315,     316,     324,     323
    1013,     252,     253,     261,     260,     316,     317,     325,     324
    1014,     253,     254,     262,     261,     317,     318,     326,     325
    1015,     254,     255,     263,     262,     318,     319,     327,     326
    1016,     255,     256,     264,     263,     319,     320,     328,     327
    1017,     256,     257,     265,     264,     320,     321,     329,     328
    1018,     257,    1557,    1439,     265,     321,    1543,    1438,     329
    1019,      79,     258,     266,      80,      71,     322,     330,      72
    1020,     258,     259,     267,     266,     322,     323,     331,     330
    1021,     259,     260,     268,     267,     323,     324,     332,     331
    1022,     260,     261,     269,     268,     324,     325,     333,     332
    1023,     261,     262,     270,     269,     325,     326,     334,     333
    1024,     262,     263,     271,     270,     326,     327,     335,     334
    1025,     263,     264,     272,     271,     327,     328,     336,     335
    1026,     264,     265,     273,     272,     328,     329,     337,     336
    1027,     265,    1439,    1436,     273,     329,    1438,    1437,     337
    1028,      80,     266,     274,      81,      72,     330,     338,      73
    1029,     266,     267,     275,     274,     330,     331,     339,     338
    1030,     267,     268,     276,     275,     331,     332,     340,     339
    1031,     268,     269,     277,     276,     332,     333,     341,     340
    1032,     269,     270,     278,     277,     333,     334,     342,     341
    1033,     270,     271,     279,     278,     334,     335,     343,     342
    1034,     271,     272,     280,     279,     335,     336,     344,     343
    1035,     272,     273,     281,     280,     336,     337,     345,     344
    1036,     273,    1436,    1424,     281,     337,    1437,    1425,     345
    1037,      81,     274,    1747,    1472,      73,     338,    1765,    1473
    1038,     274,     275,    1746,    1747,     338,     339,    1764,    1765
    1039,     275,     276,    1467,    1746,     339,     340,    1466,    1764
    1040,     276,     277,    1891,    1467,     340,     341,    1881,    1466
    1041,     277,     278,    1890,    1891,     341,     342,    1880,    1881
    1042,     278,     279,    1461,    1890,     342,     343,    1460,    1880
    1043,     279,     280,    1462,    1461,     343,     344,    1463,    1460
    1044,     280,     281,    1430,    1462,     344,     345,    1431,    1463
    1045,     281,    1424,    1422,    1430,     345,    1425,    1423,    1431
    1046,      11,      98,     282,      66,      12,     106,     346,      58
    1047,      98,      99,     283,     282,     106,     107,     347,     346
    1048,      99,     100,     284,     283,     107,     108,     348,     347
    1049,     100,     101,     285,     284,     108,     109,     349,     348
    1050,     101,     102,     286,     285,     109,     110,     350,     349
    1051,     102,     103,     287,     286,     110,     111,     351,     350
    1052,     103,     104,     288,     287,     111,     112,     352,     351
    1053,     104,     105,     289,     288,     112,     113,     353,     352
    1054,     105,    1454,    1451,     289,     113,     741,    1369,     353
    1055,      66,     282,     290,      67,      58,     346,     354,      59
    1056,     282,     283,     291,     290,     346,     347,     355,     354
    1057,     283,     284,     292,     291,     347,     348,     356,     355
    1058,     284,     285,     293,     292,     348,     349,     357,     356
    1059,     285,     286,     294,     293,     349,     350,     358,     357
    1060,     286,     287,     295,     294,     350,     351,     359,     358
    1061,     287,     288,     296,     295,     351,     352,     360,     359
    1062,     288,     289,     297,     296,     352,     353,     361,     360
    1063,     289,    1451,    1447,     297,     353,    1369,    1368,     361
    1064,      67,     290,     298,      68,      59,     354,     362,      60
    1065,     290,     291,     299,     298,     354,     355,     363,     362
    1066,     291,     292,     300,     299,     355,     356,     364,     363
    1067,     292,     293,     301,     300,     356,     357,     365,     364
    1068,     293,     294,     302,     301,     357,     358,     366,     365
    1069,     294,     295,     303,     302,     358,     359,     367,     366
    1070,     295,     296,     304,     303,     359,     360,     368,     367
    1071,     296,     297,     305,     304,     360,     361,     369,     368
    1072,     297,    1447,    1444,     305,     361,    1368,     744,     369
    1073,      68,     298,     306,      69,      60,     362,     370,      61
    1074,     298,     299,     307,     306,     362,     363,     371,     370
    1075,     299,     300,     308,     307,     363,     364,     372,     371
    1076,     300,     301,     309,     308,     364,     365,     373,     372
    1077,     301,     302,     310,     309,     365,     366,     374,     373
    1078,     302,     303,     311,     310,     366,     367,     375,     374
    1079,     303,     304,     312,     311,     367,     368,     376,     375
    1080,     304,     305,     313,     312,     368,     369,     377,     376
    1081,     305,    1444,    1542,     313,     369,     744,    1549,     377
    1082,      69,     306,     314,      70,      61,     370,     378,      62
    1083,     306,     307,     315,     314,     370,     371,     379,     378
    1084,     307,     308,     316,     315,     371,     372,     380,     379
    1085,     308,     309,     317,     316,     372,     373,     381,     380
    1086,     309,     310,     318,     317,     373,     374,     382,     381
    1087,     310,     311,     319,     318,     374,     375,     383,     382
    1088,     311,     312,     320,     319,     375,     376,     384,     383
    1089,     312,     313,     321,     320,     376,     377,     385,     384
    1090,     313,    1542,    1543,     321,     377,    1549,    1548,     385
    1091,      70,     314,     322,      71,      62,     378,     386,      63
    1092,     314,     315,     323,     322,     378,     379,     387,     386
    1093,     315,     316,     324,     323,     379,     380,     388,     387
    1094,     316,     317,     325,     324,     380,     381,     389,     388
    1095,     317,     318,     326,     325,     381,     382,     390,     389
    1096,     318,     319,     327,     326,     382,     383,     391,     390
    1097,     319,     320,     328,     327,     383,     384,     392,     391
    1098,     320,     321,     329,     328,     384,     385,     393,     392
    1099,     321,    1543,    1438,     329,     385,    1548,     745,     393
    1100,      71,     322,     330,      72,      63,     386,     394,      64
    1101,     322,     323,     331,     330,     386,     387,     395,     394
    1102,     323,     324,     332,     331,     387,     388,     396,     395
    1103,     324,     325,     333,     332,     388,     389,     397,     396
    1104,     325,     326,     334,     333,     389,     390,     398,     397
    1105,     326,     327,     335,     334,     390,     391,     399,     398
    1106,     327,     328,     336,     335,     391,     392,     400,     399
    1107,     328,     329,     337,     336,     392,     393,     401,     400
    1108,     329,    1438,    1437,     337,     393,     745,    1175,     401
    1109,      72,     330,     338,      73,      64,     394,     402,      65
    1110,     330,     331,     339,     338,     394,     395,     403,     402
    1111,     331,     332,     340,     339,     395,     396,     404,     403
    1112,     332,     333,     341,     340,     396,     397,     405,     404
    1113,     333,     334,     342,     341,     397,     398,     406,     405
    1114,     334,     335,     343,     342,     398,     399,     407,     406
    1115,     335,     336,     344,     343,     399,     400,     408,     407
    1116,     336,     337,     345,     344,     400,     401,     409,     408
    1117,     337,    1437,    1425,     345,     401,    1175,    1174,     409
    1118,      73,     338,    1765,    1473,      65,     402,    1760,     750
    1119,     338,     339,    1764,    1765,     402,     403,    1761,    1760
    1120,     339,     340,    1466,    1764,     403,     404,     757,    1761
    1121,     340,     341,    1881,    1466,     404,     405,    1876,     757
    1122,     341,     342,    1880,    1881,     405,     406,    1877,    1876
    1123,     342,     343,    1460,    1880,     406,     407,     756,    1877
    1124,     343,     344,    1463,    1460,     407,     408,    1306,     756
    1125,     344,     345,    1431,    1463,     408,     409,    1307,    1306
    1126,     345,    1425,    1423,    1431,     409,    1174,     735,    1307
    1127,      12,     106,     346,      58,      13,     114,     410,      50
    1128,     106,     107,     347,     346,     114,     115,     411,     410
    1129,     107,     108,     348,     347,     115,     116,     412,     411
    1130,     108,     109,     349,     348,     116,     117,     413,     412
    1131,     109,     110,     350,     349,     117,     118,     414,     413
    1132,     110,     111,     351,     350,     118,     119,     415,     414
    1133,     111,     112,     352,     351,     119,     120,     416,     415
    1134,     112,     113,     353,     352,     120,     121,     417,     416
    1135,     113,     741,    1369,     353,     121,    1653,    1648,     417
    1136,      58,     346,     354,      59,      50,     410,     418,      51
    1137,     346,     347,     355,     354,     410,     411,     419,     418
    1138,     347,     348,     356,     355,     411,     412,     420,     419
    1139,     348,     349,     357,     356,     412,     413,     421,     420
    1140,     349,     350,     358,     357,     413,     414,     422,     421
    1141,     350,     351,     359,     358,     414,     415,     423,     422
    1142,     351,     352,     360,     359,     415,     416,     424,     423
    1143,     352,     353,     361,     360,     416,     417,     425,     424
    1144,     353,    1369,    1368,     361,     417,    1648,    1646,     425
    1145,      59,     354,     362,      60,      51,     418,     426,      52
    1146,     354,     355,     363,     362,     418,     419,     427,     426
    1147,     355,     356,     364,     363,     419,     420,     428,     427
    1148,     356,     357,     365,     364,     420,     421,     429,     428
    1149,     357,     358,     366,     365,     421,     422,     430,     429
    1150,     358,     359,     367,     366,     422,     423,     431,     430
    1151,     359,     360,     368,     367,     423,     424,     432,     431
    1152,     360,     361,     369,     368,     424,     425,     433,     432
    1153,     361,    1368,     744,     369,     425,    1646,    1629,     433
    1154,      60,     362,     370,      61,      52,     426,     434,      53
    1155,     362,     363,     371,     370,     426,     427,     435,     434
    1156,     363,     364,     372,     371,     427,     428,     436,     435
    1157,     364,     365,     373,     372,     428,     429,     437,     436
    1158,     365,     366,     374,     373,     429,     430,     438,     437
    1159,     366,     367,     375,     374,     430,     431,     439,     438
    1160,     367,     368,     376,     375,     431,     432,     440,     439
    1161,     368,     369,     377,     376,     432,     433,     441,     440
    1162,     369,     744,    1549,     377,     433,    1629,    1626,     441
    1163,      61,     370,     378,      62,      53,     434,     442,      54
    1164,     370,     371,     379,     378,     434,     435,     443,     442
    1165,     371,     372,     380,     379,     435,     436,     444,     443
    1166,     372,     373,     381,     380,     436,     437,     445,     444
    1167,     373,     374,     382,     381,     437,     438,     446,     445
    1168,     374,     375,     383,     382,     438,     439,     447,     446
    1169,     375,     376,     384,     383,     439,     440,     448,     447
    1170,     376,     377,     385,     384,     440,     441,     449,     448
    1171,     377,    1549,    1548,     385,     441,    1626,    1620,     449
    1172,      62,     378,     386,      63,      54,     442,     450,      55
    1173,     378,     379,     387,     386,     442,     443,     451,     450
    1174,     379,     380,     388,     387,     443,     444,     452,     451
    1175,     380,     381,     389,     388,     444,     445,     453,     452
    1176,     381,     382,     390,     389,     445,     446,     454,     453
    1177,     382,     383,     391,     390,     446,     447,     455,     454
    1178,     383,     384,     392,     391,     447,     448,     456,     455
    1179,     384,     385,     393,     392,     448,     449,     457,     456
    1180,     385,    1548,     745,     393,     449,    1620,    1619,     457
    1181,      63,     386,     394,      64,      55,     450,     458,      56
    1182,     386,     387,     395,     394,     450,     451,     459,     458
    1183,     387,     388,     396,     395,     451,     452,     460,     459
    1184,     388,     389,     397,     396,     452,     453,     461,     460
    1185,     389,     390,     398,     397,     453,     454,     462,     461
    1186,     390,     391,     399,     398,     454,     455,     463,     462
    1187,     391,     392,     400,     399,     455,     456,     464,     463
    1188,     392,     393,     401,     400,     456,     457,     465,     464
    1189,     393,     745,    1175,     401,     457,    1619,    1612,     465
    1190,      64,     394,     402,      65,      56,     458,     466,      57
    1191,     394,     395,     403,     402,     458,     459,     467,     466
    1192,     395,     396,     404,     403,     459,     460,     468,     467
    1193,     396,     397,     405,     404,     460,     461,     469,     468
    1194,     397,     398,     406,     405,     461,     462,     470,     469
    1195,     398,     399,     407,     406,     462,     463,     471,     470
    1196,     399,     400,     408,     407,     463,     464,     472,     471
    1197,     400,     401,     409,     408,     464,     465,     473,     472
    1198,     401,    1175,    1174,     409,     465,    1612,    1610,     473
    1199,      65,     402,    1760,     750,      57,     466,    1757,    1642
    1200,     402,     403,    1761,    1760,     466,     467,    1756,    1757
    1201,     403,     404,     757,    1761,     467,     468,    1639,    1756
    1202,     404,     405,    1876,     757,     468,     469,    1865,    1639
    1203,     405,     406,    1877,    1876,     469,     470,    1864,    1865
    1204,     406,     407,     756,    1877,     470,     471,    1635,    1864
    1205,     407,     408,    1306,     756,     471,     472,    1594,    1635
    1206,     408,     409,    1307,    1306,     472,     473,    1596,    1594
    1207,     409,    1174,     735,    1307,     473,    1610,    1606,    1596
    1208,      13,     114,     410,      50,      14,     122,     474,      42
    1209,     114,     115,     411,     410,     122,     123,     475,     474
    1210,     115,     116,     412,     411,     123,     124,     476,     475
    1211,     116,     117,     413,     412,     124,     125,     477,     476
    1212,     117,     118,     414,     413,     125,     126,     478,     477
    1213,     118,     119,     415,     414,     126,     127,     479,     478
    1214,     119,     120,     416,     415,     127,     128,     480,     479
    1215,     120,     121,     417,     416,     128,     129,     481,     480
    1216,     121,    1653,    1648,     417,     129,    1652,    1649,     481
    1217,      50,     410,     418,      51,      42,     474,     482,      43
    1218,     410,     411,     419,     418,     474,     475,     483,     482
    1219,     411,     412,     420,     419,     475,     476,     484,     483
    1220,     412,     413,     421,     420,     476,     477,     485,     484
    1221,     413,     414,     422,     421,     477,     478,     486,     485
    1222,     414,     415,     423,     422,     478,     479,     487,     486
    1223,     415,     416,     424,     423,     479,     480,     488,     487
    1224,     416,     417,     425,     424,     480,     481,     489,     488
    1225,     417,    1648,    1646,     425,     481,    1649,    1647,     489
    1226,      51,     418,     426,      52,      43,     482,     490,      44
    1227,     418,     419,     427,     426,     482,     483,     491,     490
    1228,     419,     420,     428,     427,     483,     484,     492,     491
    1229,     420,     421,     429,     428,     484,     485,     493,     492
    1230,     421,     422,     430,     429,     485,     486,     494,     493
    1231,     422,     423,     431,     430,     486,     487,     495,     494
    1232,     423,     424,     432,     431,     487,     488,     496,     495
    1233,     424,     425,     433,     432,     488,     489,     497,     496
    1234,     425,    1646,    1629,     433,     489,    1647,    1628,     497
    1235,      52,     426,     434,      53,      44,     490,     498,      45
    1236,     426,     427,     435,     434,     490,     491,     499,     498
    1237,     427,     428,     436,     435,     491,     492,     500,     499
    1238,     428,     429,     437,     436,     492,     493,     501,     500
    1239,     429,     430,     438,     437,     493,     494,     502,     501
    1240,     430,     431,     439,     438,     494,     495,     503,     502
    1241,     431,     432,     440,     439,     495,     496,     504,     503
    1242,     432,     433,     441,     440,     496,     497,     505,     504
    1243,     433,    1629,    1626,     441,     497,    1628,    1627,     505
    1244,      53,     434,     442,      54,      45,     498,     506,      46
    1245,     434,     435,     443,     442,     498,     499,     507,     506
    1246,     435,     436,     444,     443,     499,     500,     508,     507
    1247,     436,     437,     445,     444,     500,     501,     509,     508
    1248,     437,     438,     446,     445,     501,     502,     510,     509
    1249,     438,     439,     447,     446,     502,     503,     511,     510
    1250,     439,     440,     448,     447,     503,     504,     512,     511
    1251,     440,     441,     449,     448,     504,     505,     513,     512
    1252,     441,    1626,    1620,     449,     505,    1627,    1621,     513
    1253,      54,     442,     450,      55,      46,     506,     514,      47
    1254,     442,     443,     451,     450,     506,     507,     515,     514
    1255,     443,     444,     452,     451,     507,     508,     516,     515
    1256,     444,     445,     453,     452,     508,     509,     517,     516
    1257,     445,     446,     454,     453,     509,     510,     518,     517
    1258,     446,     447,     455,     454,     510,     511,     519,     518
    1259,     447,     448,     456,     455,     511,     512,     520,     519
    1260,     448,     449,     457,     456,     512,     513,     521,     520
    1261,     449,    1620,    1619,     457,     513,    1621,    1618,     521
    1262,      55,     450,     458,      56,      47,     514,     522,      48
    1263,     450,     451,     459,     458,     514,     515,     523,     522
    1264,     451,     452,     460,     459,     515,     516,     524,     523
    1265,     452,     453,     461,     460,     516,     517,     525,     524
    1266,     453,     454,     462,     461,     517,     518,     526,     525
    1267,     454,     455,     463,     462,     518,     519,     527,     526
    1268,     455,     456,     464,     463,     519,     520,     528,     527
    1269,     456,     457,     465,     464,     520,     521,     529,     528
    1270,     457,    1619,    1612,     465,     521,    1618,    1613,     529
    1271,      56,     458,     466,      57,      48,     522,     530,      49
    1272,     458,     459,     467,     466,     522,     523,     531,     530
    1273,     459,     460,     468,     467,     523,     524,     532,     531
    1274,     460,     461,     469,     468,     524,     525,     533,     532
    1275,     461,     462,     470,     469,     525,     526,     534,     533
    1276,     462,     463,     471,     470,     526,     527,     535,     534
    1277,     463,     464,     472,     471,     527,     528,     536,     535
    1278,     464,     465,     473,     472,     528,     529,     537,     536
    1279,     465,    1612,    1610,     473,     529,    1613,    1611,     537
    1280,      57,     466,    1757,    1642,      49,     530,    1753,    1643
    1281,     466,     467,    1756,    1757,     530,     531,    1752,    1753
    1282,     467,     468,    1639,    1756,     531,     532,    1638,    1752
    1283,     468,     469,    1865,    1639,     532,     533,    1871,    1638
    1284,     469,     470,    1864,    1865,     533,     534,    1870,    1871
    1285,     470,     471,    1635,    1864,     534,     535,    1634,    1870
    1286,     471,     472,    1594,    1635,     535,     536,    1595,    1634
    1287,     472,     473,    1596,    1594,     536,     537,    1597,    1595
    1288,     473,    1610,    1606,    1596,     537,    1611,    1607,    1597
    1289,      14,     122,     474,      42,      15,     130,     538,      34
    1290,     122,     123,     475,     474,     130,     131,     539,     538
    1291,     123,     124,     476,     475,     131,     132,     540,     539
    1292,     124,     125,     477,     476,     132,     133,     541,     540
    1293,     125,     126,     478,     477,     133,     134,     542,     541
    1294,     126,     127,     479,     478,     134,     135,     543,     542
    1295,     127,     128,     480,     479,     135,     136,     544,     543
    1296,     128,     129,     481,     480,     136,     137,     545,     544
    1297,     129,    1652,    1649,     481,     137,     740,    1375,     545
    1298,      42,     474,     482,      43,      34,     538,     546,      35
    1299,     474,     475,     483,     482,     538,     539,     547,     546
    1300,     475,     476,     484,     483,     539,     540,     548,     547
    1301,     476,     477,     485,     484,     540,     541,     549,     548
    1302,     477,     478,     486,     485,     541,     542,     550,     549
    1303,     478,     479,     487,     486,     542,     543,     551,     550
    1304,     479,     480,     488,     487,     543,     544,     552,     551
    1305,     480,     481,     489,     488,     544,     545,     553,     552
    1306,     481,    1649,    1647,     489,     545,    1375,    1374,     553
    1307,      43,     482,     490,      44,      35,     546,     554,      36
    1308,     482,     483,     491,     490,     546,     547,     555,     554
    1309,     483,     484,     492,     491,     547,     548,     556,     555
    1310,     484,     485,     493,     492,     548,     549,     557,     556
    1311,     485,     486,     494,     493,     549,     550,     558,     557
    1312,     486,     487,     495,     494,     550,     551,     559,     558
    1313,     487,     488,     496,     495,     551,     552,     560,     559
    1314,     488,     489,     497,     496,     552,     553,     561,     560
    1315,     489,    1647,    1628,     497,     553,    1374,     742,     561
    1316,      44,     490,     498,      45,      36,     554,     562,      37
    1317,     490,     491,     499,     498,     554,     555,     563,     562
    1318,     491,     492,     500,     499,     555,     556,     564,     563
    1319,     492,     493,     501,     500,     556,     557,     565,     564
    1320,     493,     494,     502,     501,     557,     558,     566,     565
    1321,     494,     495,     503,     502,     558,     559,     567,     566
    1322,     495,     496,     504,     503,     559,     560,     568,     567
    1323,     496,     497,     505,     504,     560,     561,     569,     568
    1324,     497,    1628,    1627,     505,     561,     742,    1561,     569
    1325,      45,     498,     506,      46,      37,     562,     570,      38
    1326,     498,     499,     507,     506,     562,     563,     571,     570
    1327,     499,     500,     508,     507,     563,     564,     572,     571
    1328,     500,     501,     509,     508,     564,     565,     573,     572
    1329,     501,     502,     510,     509,     565,     566,     574,     573
    1330,     502,     503,     511,     510,     566,     567,     575,     574
    1331,     503,     504,     512,     511,     567,     568,     576,     575
    1332,     504,     505,     513,     512,     568,     569,     577,     576
    1333,     505,    1627,    1621,     513,     569,    1561,    1560,     577
    1334,      46,     506,     514,      47,      38,     570,     578,      39
    1335,     506,     507,     515,     514,     570,     571,     579,     578
    1336,     507,     508,     516,     515,     571,     572,     580,     579
    1337,     508,     509,     517,     516,     572,     573,     581,     580
    1338,     509,     510,     518,     517,     573,     574,     582,     581
    1339,     510,     511,     519,     518,     574,     575,     583,     582
    1340,     511,     512,     520,     519,     575,     576,     584,     583
    1341,     512,     513,     521,     520,     576,     577,     585,     584
    1342,     513,    1621,    1618,     521,     577,    1560,     743,     585
    1343,      47,     514,     522,      48,      39,     578,     586,      40
    1344,     514,     515,     523,     522,     578,     579,     587,     586
    1345,     515,     516,     524,     523,     579,     580,     588,     587
    1346,     516,     517,     525,     524,     580,     581,     589,     588
    1347,     517,     518,     526,     525,     581,     582,     590,     589
    1348,     518,     519,     527,     526,     582,     583,     591,     590
    1349,     519,     520,     528,     527,     583,     584,     592,     591
    1350,     520,     521,     529,     528,     584,     585,     593,     592
    1351,     521,    1618,    1613,     529,     585,     743,    1173,     593
    1352,      48,     522,     530,      49,      40,     586,     594,      41
    1353,     522,     523,     531,     530,     586,     587,     595,     594
    1354,     523,     524,     532,     531,     587,     588,     596,     595
    1355,     524,     525,     533,     532,     588,     589,     597,     596
    1356,     525,     526,     534,     533,     589,     590,     598,     597
    1357,     526,     527,     535,     534,     590,     591,     599,     598
    1358,     527,     528,     536,     535,     591,     592,     600,     599
    1359,     528,     529,     537,     536,     592,     593,     601,     600
    1360,     529,    1613,    1611,     537,     593,    1173,    1172,     601
    1361,      49,     530,    1753,    1643,      41,     594,    1748,     751
    1362,     530,     531,    1752,    1753,     594,     595,    1749,    1748
    1363,     531,     532,    1638,    1752,     595,     596,     755,    1749
    1364,     532,     533,    1871,    1638,     596,     597,    1874,     755
    1365,     533,     534,    1870,    1871,     597,     598,    1875,    1874
    1366,     534,     535,    1634,    1870,     598,     599,     754,    1875
    1367,     535,     536,    1595,    1634,     599,     600,    1314,     754
    1368,     536,     537,    1597,    1595,     600,     601,    1315,    1314
    1369,     537,    1611,    1607,    1597,     601,    1172,     736,    1315
    1370,      15,     130,     538,      34,      16,     138,     602,      26
    1371,     130,     131,     539,     538,     138,     139,     603,     602
    1372,     131,     132,     540,     539,     139,     140,     604,     603
    1373,     132,     133,     541,     540,     140,     141,     605,     604
    1374,     133,     134,     542,     541,     141,     142,     606,     605
    1375,     134,     135,     543,     542,     142,     143,     607,     606
    1376,     135,     136,     544,     543,     143,     144,     608,     607
    1377,     136,     137,     545,     544,     144,     145,     609,     608
    1378,     137,     740,    1375,     545,     145,    1249,    1360,     609
    1379,      34,     538,     546,      35,      26,     602,     610,      27
    1380,     538,     539,     547,     546,     602,     603,     611,     610
    1381,     539,     540,     548,     547,     603,     604,     612,     611
    1382,     540,     541,     549,     548,     604,     605,     613,     612
    1383,     541,     542,     550,     549,     605,     606,     614,     613
    1384,     542,     543,     551,     550,     606,     607,     615,     614
    1385,     543,     544,     552,     551,     607,     608,     616,     615
    1386,     544,     545,     553,     552,     608,     609,     617,     616
    1387,     545,    1375,    1374,     553,     609,    1360,    1361,     617
    1388,      35,     546,     554,      36,      27,     610,     618,      28
    1389,     546,     547,     555,     554,     610,     611,     619,     618
    1390,     547,     548,     556,     555,     611,     612,     620,     619
    1391,     548,     549,     557,     556,     612,     613,     621,     620
    1392,     549,     550,     558,     557,     613,     614,     622,     621
    1393,     550,     551,     559,     558,     614,     615,     623,     622
    1394,     551,     552,     560,     559,     615,     616,     624,     623
    1395,     552,     553,     561,     560,     616,     617,     625,     624
    1396,     553,    1374,     742,     561,     617,    1361,    1237,     625
    1397,      36,     554,     562,      37,      28,     618,     626,      29
    1398,     554,     555,     563,     562,     618,     619,     627,     626
    1399,     555,     556,     564,     563,     619,     620,     628,     627
    1400,     556,     557,     565,     564,     620,     621,     629,     628
    1401,     557,     558,     566,     565,     621,     622,     630,     629
    1402,     558,     559,     567,     566,     622,     623,     631,     630
    1403,     559,     560,     568,     567,     623,     624,     632,     631
    1404,     560,     561,     569,     568,     624,     625,     633,     632
    1405,     561,     742,    1561,     569,     625,    1237,    1506,     633
    1406,      37,     562,     570,      38,      29,     626,     634,      30
    1407,     562,     563,     571,     570,     626,     627,     635,     634
    1408,     563,     564,     572,     571,     627,     628,     636,     635
    1409,     564,     565,     573,     572,     628,     629,     637,     636
    1410,     565,     566,     574,     573,     629,     630,     638,     637
    1411,     566,     567,     575,     574,     630,     631,     639,     638
    1412,     567,     568,     576,     575,     631,     632,     640,     639
    1413,     568,     569,     577,     576,     632,     633,     641,     640
    1414,     569,    1561,    1560,     577,     633,    1506,    1507,     641
    1415,      38,     570,     578,      39,      30,     634,     642,      31
    1416,     570,     571,     579,     578,     634,     635,     643,     642
    1417,     571,     572,     580,     579,     635,     636,     644,     643
    1418,     572,     573,     581,     580,     636,     637,     645,     644
    1419,     573,     574,     582,     581,     637,     638,     646,     645
    1420,     574,     575,     583,     582,     638,     639,     647,     646
    1421,     575,     576,     584,     583,     639,     640,     648,     647
    1422,     576,     577,     585,     584,     640,     641,     649,     648
    1423,     577,    1560,     743,     585,     641,    1507,    1235,     649
    1424,      39,     578,     586,      40,      31,     642,     650,      32
    1425,     578,     579,     587,     586,     642,     643,     651,     650
    1426,     579,     580,     588,     587,     643,     644,     652,     651
    1427,     580,     581,     589,     588,     644,     645,     653,     652
    1428,     581,     582,     590,     589,     645,     646,     654,     653
    1429,     582,     583,     591,     590,     646,     647,     655,     654
    1430,     583,     584,     592,     591,     647,     648,     656,     655
    1431,     584,     585,     593,     592,     648,     649,     657,     656
    1432,     585,     743,    1173,     593,     649,    1235,    1226,     657
    1433,      40,     586,     594,      41,      32,     650,     658,      33
    1434,     586,     587,     595,     594,     650,     651,     659,     658
    1435,     587,     588,     596,     595,     651,     652,     660,     659
    1436,     588,     589,     597,     596,     652,     653,     661,     660
    1437,     589,     590,     598,     597,     653,     654,     662,     661
    1438,     590,     591,     599,     598,     654,     655,     663,     662
    1439,     591,     592,     600,     599,     655,     656,     664,     663
    1440,     592,     593,     601,     600,     656,     657,     665,     664
    1441,     593,    1173,    1172,     601,     657,    1226,    1224,     665
    1442,      41,     594,    1748,     751,      33,     658,    1705,    1244
    1443,     594,     595,    1749,    1748,     658,     659,    1704,    1705
    1444,     595,     596,     755,    1749,     659,     660,    1239,    1704
    1445,     596,     597,    1874,     755,     660,     661,    1813,    1239
    1446,     597,     598,    1875,    1874,     661,     662,    1812,    1813
    1447,     598,     599,     754,    1875,     662,     663,    1221,    1812
    1448,     599,     600,    1314,     754,     663,     664,    1303,    1221
    1449,     600,     601,    1315,    1314,     664,     665,    1302,    1303
    1450,     601,    1172,     736,    1315,     665,    1224,    1216,    1302
    1451,      16,     138,     602,      26,      17,     146,     666,      18
    1452,     138,     139,     603,     602,     146,     147,     667,     666
    1453,     139,     140,     604,     603,     147,     148,     668,     667
    1454,     140,     141,     605,     604,     148,     149,     669,     668
    1455,     141,     142,     606,     605,     149,     150,     670,     669
    1456,     142,     143,     607,     606,     150,     151,     671,     670
    1457,     143,     144,     608,     607,     151,     152,     672,     671
    1458,     144,     145,     609,     608,     152,     153,     673,     672
    1459,     145,    1249,    1360,     609,     153,    1248,    1346,     673
    1460,      26,     602,     610,      27,      18,     666,     674,      19
    1461,     602,     603,     611,     610,     666,     667,     675,     674
    1462,     603,     604,     612,     611,     667,     668,     676,     675
    1463,     604,     605,     613,     612,     668,     669,     677,     676
    1464,     605,     606,     614,     613,     669,     670,     678,     677
    1465,     606,     607,     615,     614,     670,     671,     679,     678
    1466,     607,     608,     616,     615,     671,     672,     680,     679
    1467,     608,     609,     617,     616,     672,     673,     681,     680
    1468,     609,    1360,    1361,     617,     673,    1346,    1347,     681
    1469,      27,     610,     618,      28,      19,     674,     682,      20
    1470,     610,     611,     619,     618,     674,     675,     683,     682
    1471,     611,     612,     620,     619,     675,     676,     684,     683
    1472,     612,     613,     621,     620,     676,     677,     685,     684
    1473,     613,     614,     622,     621,     677,     678,     686,     685
    1474,     614,     615,     623,     622,     678,     679,     687,     686
    1475,     615,     616,     624,     623,     679,     680,     688,     687
    1476,     616,     617,     625,     624,     680,     681,     689,     688
    1477,     617,    1361,    1237,     625,     681,    1347,    1236,     689
    1478,      28,     618,     626,      29,      20,     682,     690,      21
    1479,     618,     619,     627,     626,     682,     683,     691,     690
    1480,     619,     620,     628,     627,     683,     684,     692,     691
    1481,     620,     621,     629,     628,     684,     685,     693,     692
    1482,     621,     622,     630,     629,     685,     686,     694,     693
    1483,     622,     623,     631,     630,     686,     687,     695,     694
    1484,     623,     624,     632,     631,     687,     688,     696,     695
    1485,     624,     625,     633,     632,     688,     689,     697,     696
    1486,     625,    1237,    1506,     633,     689,    1236,    1512,     697
    1487,      29,     626,     634,      30,      21,     690,     698,      22
    1488,     626,     627,     635,     634,     690,     691,     699,     698
    1489,     627,     628,     636,     635,     691,     692,     700,     699
    1490,     628,     629,     637,     636,     692,     693,     701,     700
    1491,     629,     630,     638,     637,     693,     694,     702,     701
    1492,     630,     631,     639,     638,     694,     695,     703,     702
    1493,     631,     632,     640,     639,     695,     696,     704,     703
    1494,     632,     633,     641,     640,     696,     697,     705,     704
    1495,     633,    1506,    1507,     641,     697,    1512,    1513,     705
    1496,      30,     634,     642,      31,      22,     698,     706,      23
    1497,     634,     635,     643,     642,     698,     699,     707,     706
    1498,     635,     636,     644,     643,     699,     700,     708,     707
    1499,     636,     637,     645,     644,     700,     701,     709,     708
    1500,     637,     638,     646,     645,     701,     702,     710,     709
    1501,     638,     639,     647,     646,     702,     703,     711,     710
    1502,     639,     640,     648,     647,     703,     704,     712,     711
    1503,     640,     641,     649,     648,     704,     705,     713,     712
    1504,     641,    1507,    1235,     649,     705,    1513,    1234,     713
    1505,      31,     642,     650,      32,      23,     706,     714,      24
    1506,     642,     643,     651,     650,     706,     707,     715,     714
    1507,     643,     644,     652,     651,     707,     708,     716,     715
    1508,     644,     645,     653,     652,     708,     709,     717,     716
    1509,     645,     646,     654,     653,     709,     710,     718,     717
    1510,     646,     647,     655,     654,     710,     711,     719,     718
    1511,     647,     648,     656,     655,     711,     712,     720,     719
    1512,     648,     649,     657,     656,     712,     713,     721,     720
    1513,     649,    1235,    1226,     657,     713,    1234,    1227,     721
    1514,      32,     650,     658,      33,      24,     714,     722,      25
    1515,     650,     651,     659,     658,     714,     715,     723,     722
    1516,     651,     652,     660,     659,     715,     716,     724,     723
    1517,     652,     653,     661,     660,     716,     717,     725,     724
    1518,     653,     654,     662,     661,     717,     718,     726,     725
    1519,     654,     655,     663,     662,     718,     719,     727,     726
    1520,     655,     656,     664,     663,     719,     720,     728,     727
    1521,     656,     657,     665,     664,     720,     721,     729,     728
    1522,     657,    1226,    1224,     665,     721,    1227,    1225,     729
    1523,      33,     658,    1705,    1244,      25,     722,    1699,    1245
    1524,     658,     659,    1704,    1705,     722,     723,    1698,    1699
    1525,     659,     660,    1239,    1704,     723,     724,    1238,    1698
    1526,     660,     661,    1813,    1239,     724,     725,    1819,    1238
    1527,     661,     662,    1812,    1813,     725,     726,    1818,    1819
    1528,     662,     663,    1221,    1812,     726,     727,    1220,    1818
    1529,     663,     664,    1303,    1221,     727,     728,    1297,    1220
    1530,     664,     665,    1302,    1303,     728,     729,    1296,    1297
    1531,     665,    1224,    1216,    1302,     729,    1225,    1217,    1296
    1532,      17,     146,     666,      18,     758,    1718,    1715,    1391
    1533,     146,     147,     667,     666,    1718,    1719,    1714,    1715
    1534,     147,     148,     668,     667,    1719,     759,    1386,    1714
    1535,     148,     149,     669,     668,     759,    1858,    1853,    1386
    1536,     149,     150,     670,     669,    1858,    1859,    1852,    1853
    1537,     150,     151,     671,     670,    1859,     760,    1378,    1852
    1538,     151,     152,     672,     671,     760,    1290,    1381,    1378
    1539,     152,     153,     673,     672,    1290,    1291,    1357,    1381
    1540,     153,    1248,    1346,     673,    1291,     731,    1353,    1357
    1541,      18,     666,     674,      19,    1391,    1715,    1709,    1390
    1542,     666,     667,     675,     674,    1715,    1714,    1708,    1709
    1543,     667,     668,     676,     675,    1714,    1386,    1387,    1708
    1544,     668,     669,     677,     676,    1386,    1853,    1851,    1387
    1545,     669,     670,     678,     677,    1853,    1852,    1850,    1851
    1546,     670,     671,     679,     678,    1852,    1378,    1379,    1850
    1547,     671,     672,     680,     679,    1378,    1381,    1380,    1379
    1548,     672,     673,     681,     680,    1381,    1357,    1356,    1380
    1549,     673,    1346,    1347,     681,    1357,    1353,    1352,    1356
    1550,      19,     674,     682,      20,    1390,    1709,    1738,     762
    1551,     674,     675,     683,     682,    1709,    1708,    1739,    1738
    1552,     675,     676,     684,     683,    1708,    1387,     764,    1739
    1553,     676,     677,     685,     684,    1387,    1851,    1844,     764
    1554,     677,     678,     686,     685,    1851,    1850,    1845,    1844
    1555,     678,     679,     687,     686,    1850,    1379,     763,    1845
    1556,     679,     680,     688,     687,    1379,    1380,    1282,     763
    1557,     680,     681,     689,     688,    1380,    1356,    1283,    1282
    1558,     681,    1347,    1236,     689,    1356,    1352,     733,    1283
    1559,      20,     682,     690,      21,     762,    1738,    1735,    1541
    1560,     682,     683,     691,     690,    1738,    1739,    1734,    1735
    1561,     683,     684,     692,     691,    1739,     764,    1534,    1734
    1562,     684,     685,     693,     692,     764,    1844,    1863,    1534
    1563,     685,     686,     694,     693,    1844,    1845,    1862,    1863
    1564,     686,     687,     695,     694,    1845,     763,    1528,    1862
    1565,     687,     688,     696,     695,     763,    1282,    1531,    1528
    1566,     688,     689,     697,     696,    1282,    1283,    1525,    1531
    1567,     689,    1236,    1512,     697,    1283,     733,    1521,    1525
    1568,      21,     690,     698,      22,    1541,    1735,    1731,    1540
    1569,     690,     691,     699,     698,    1735,    1734,    1730,    1731
    1570,     691,     692,     700,     699,    1734,    1534,    1535,    1730
    1571,     692,     693,     701,     700,    1534,    1863,    1843,    1535
    1572,     693,     694,     702,     701,    1863,    1862,    1842,    1843
    1573,     694,     695,     703,     702,    1862,    1528,    1529,    1842
    1574,     695,     696,     704,     703,    1528,    1531,    1530,    1529
    1575,     696,     697,     705,     704,    1531,    1525,    1524,    1530
    1576,     697,    1512,    1513,     705,    1525,    1521,    1520,    1524
    1577,      22,     698,     706,      23,    1540,    1731,    1726,     761
    1578,     698,     699,     707,     706,    1731,    1730,    1727,    1726
    1579,     699,     700,     708,     707,    1730,    1535,     766,    1727
    1580,     700,     701,     709,     708,    1535,    1843,    1838,     766
    1581,     701,     702,     710,     709,    1843,    1842,    1839,    1838
    1582,     702,     703,     711,     710,    1842,    1529,     765,    1839
    1583,     703,     704,     712,     711,    1529,    1530,    1284,     765
    1584,     704,     705,     713,     712,    1530,    1524,    1285,    1284
    1585,     705,    1513,    1234,     713,    1524,    1520,     732,    1285
    1586,      23,     706,     714,      24,     761,    1726,    1723,    1191
    1587,     706,     707,     715,     714,    1726,    1727,    1722,    1723
    1588,     707,     708,     716,     715,    1727,     766,    1182,    1722
    1589,     708,     709,     717,     716,     766,    1838,    1835,    1182
    1590,     709,     710,     718,     717,    1838,    1839,    1834,    1835
    1591,     710,     711,     719,     718,    1839,     765,    1176,    1834
    1592,     711,     712,     720,     719,     765,    1284,    1279,    1176
    1593,     712,     713,     721,     720,    1284,    1285,    1278,    1279
    1594,     713,    1234,    1227,     721,    1285,     732,    1167,    1278
    1595,      24,     714,     722,      25,    1191,    1723,    1697,    1190
    1596,     714,     715,     723,     722,    1723,    1722,    1696,    1697
    1597,     715,     716,     724,     723,    1722,    1182,    1183,    1696
    1598,     716,     717,     725,     724,    1182,    1835,    1831,    1183
    1599,     717,     718,     726,     725,    1835,    1834,    1830,    1831
    1600,     718,     719,     727,     726,    1834,    1176,    1177,    1830
    1601,     719,     720,     728,     727,    1176,    1279,    1273,    1177
    1602,     720,     721,     729,     728,    1279,    1278,    1272,    1273
    1603,     721,    1227,    1225,     729,    1278,    1167,    1166,    1272
    1604,      25,     722,    1699,    1245,    1190,    1697,    1690,     746
    1605,     722,     723,    1698,    1699,    1697,    1696,    1691,    1690
    1606,     723,     724,    1238,    1698,    1696,    1183,     747,    1691
    1607,     724,     725,    1819,    1238,    1183,    1831,    1822,     747
    1608,     725,     726,    1818,    1819,    1831,    1830,    1823,    1822
    1609,     726,     727,    1220,    1818,    1830,    1177,     748,    1823
    1610,     727,     728,    1297,    1220,    1177,    1273,    1292,     748
    1611,     728,     729,    1296,    1297,    1273,    1272,    1293,    1292
    1612,     729,    1225,    1217,    1296,    1272,    1166,     730,    1293
**
********************************** S I D E S E T S **********************************
*ELSET, ELSET=SS1_S1
     610,     613,     616,     619,     622,     625,     628,     631,     634,     637,
     640,     643,     646,     649,     652,     655,     658,     661,     664
*ELSET, ELSET=SS1_S2
     172,     173,     174,     175,     176,     177,     184,     185,     186,     195,
     226,     331,     397,     495,     576,     669,     671,     677,     681,     685,
     689,     693,     697,     701,     705,     709,     713,     717,     721,     725,
     729,     733,     735,     741,     745
*ELSET, ELSET=SS1_S3
     884,     885,     886,     887,     888,     889,     890,     891,     892,     965,
     966,     967,     968,     969,     970,     971,     972,     973,    1046,    1047,
    1048,    1049,    1050,    1051,    1052,    1053,    1054,    1127,    1128,    1129,
    1130,    1131,    1132,    1133,    1134,    1135,    1208,    1209,    1210,    1211,
    1212,    1213,    1214,    1215,    1216,    1289,    1290,    1291,    1292,    1293,
    1294,    1295,    1296,    1297,    1370,    1371,    1372,    1373,    1374,    1375,
    1376,    1377,    1378,    1451,    1452,    1453,    1454,    1455,    1456,    1457,
    1458,    1459,    1532,    1533,    1534,    1535,    1536,    1537,    1538,    1539,
    1540
*SURFACE, NAME=SS1
SS1_S1, S1
SS1_S2, S2
SS1_S3, S3
*ELSET, ELSET=SS2_S2
     304,     307,     310,     313,     316,     319,     322
*ELSET, ELSET=SS2_S3
       1,       2,       3,       4,       5,      26,      27,      28,      29,      30,
      51,      52,      53,      54,      55,      76,      77,      78,      79,      80,
     101,     102,     103,     104,     105,     126,     127,     128,     129,     130,
     151,     178,     181,     184,     232,     293,     325,     329,     335,     337,
     342,     347,     351,     355,     403,     404,     405,     406,     568,     569,
     570,     571,     703,     704,     705,     706,     852,     853,     854,     855
*ELSET, ELSET=SS2_S5
     377,     378,     379,     534,     535,     536,     622,     623,     624,     768,
     769,     770
*ELSET, ELSET=SS2_S6
     884,     893,     902,     911,     920,     929,     938,     947,     956,     965,
     974,     983,     992,    1001,    1010,    1019,    1028,    1037,    1046,    1055,
    1064,    1073,    1082,    1091,    1100,    1109,    1118,    1127,    1136,    1145,
    1154,    1163,    1172,    1181,    1190,    1199,    1208,    1217,    1226,    1235,
    1244,    1253,    1262,    1271,    1280,    1289,    1298,    1307,    1316,    1325,
    1334,    1343,    1352,    1361,    1370,    1379,    1388,    1397,    1406,    1415,
    1424,    1433,    1442,    1451,    1460,    1469,    1478,    1487,    1496,    1505,
    1514,    1523,    1532,    1541,    1550,    1559,    1568,    1577,    1586,    1595,
    1604
*SURFACE, NAME=SS2
SS2_S2, S2
SS2_S3, S3
SS2_S5, S5
SS2_S6, S6
*ELSET, ELSET=SS3_S5
      21,      22,      23,      24,      25,      46,      47,      48,      49,      50,
      71,      72,      73,      74,      75,      96,      97,      98,      99,     100,
     121,     122,     123,     124,     125,     146,     147,     148,     149,     150,
     155,     156,     157,     158,     159,     161,     162,     163,     164,     165,
     167,     168,     169,     170,     171,     173,     174,     175,     176,     177
*SURFACE, NAME=SS3
SS3_S5, S5
*ELSET, ELSET=SS4_S1
     359,     362,     365,     368,     371,     374,     377,     380,     383,     386,
     884,     885,     886,     887,     888,     889,     890,     891,     892,     893,
     894,     895,     896,     897,     898,     899,     900,     901,     902,     903,
     904,     905,     906,     907,     908,     909,     910,     911,     912,     913,
     914,     915,     916,     917,     918,     919,     920,     921,     922,     923,
     924,     925,     926,     927,     928,     929,     930,     931,     932,     933,
     934,     935,     936,     937,     938,     939,     940,     941,     942,     943,
     944,     945,     946,     947,     948,     949,     950,     951,     952,     953,
     954,     955,     956,     957,     958,     959,     960,     961,     962,     963,
     964
*ELSET, ELSET=SS4_S3
     454,     455,     456,     643,     644,     645,     792,     793,     794
*ELSET, ELSET=SS4_S6
       1,       6,      11,      16,      21,      26,      31,      36,      41,      46,
      51,      56,      61,      66,      71,      76,      81,      86,      91,      96,
     101,     106,     111,     116,     121,     126,     131,     136,     141,     146,
     155,     161,     167,     173,     196,     275,     341,     389,     393,     399,
     403,     407,     411,     415,     419,     426,     428,     432,     478,     479,
     480,     481,     671,     672,     673,     674,     824,     825,     826,     827
*SURFACE, NAME=SS4
SS4_S1, S1
SS4_S3, S3
SS4_S6, S6
**
********************************** P R O P E R T I E S ************************
*SOLID SECTION, ELSET=EB1, MATERIAL=Default-Steel
**
*END PART
**
**
**
********************************** E N D   P A R T S **********************************
**
**
********************************** A S S E M B L Y ************************************
**
*ASSEMBLY, NAME=ASSEMBLY1
**
*INSTANCE, NAME=Part-Default_1, PART=Part-Default
*END INSTANCE
**
*END ASSEMBLY
**
**
**
*MATERIAL, NAME = Default-Steel
*ELASTIC, TYPE=ISOTROPIC
2.068000e+05, 2.900000e-01
*DENSITY
7.000000e-06
*CONDUCTIVITY,TYPE=ISO
4.500000e-02
*SPECIFIC HEAT
5.000000e+02
**
**
************************************** H I S T O R Y *************************************
**
*PREPRINT
**
**************************************** S T E P 1 ***************************************
*STEP,INC=100,NAME=Default Set
**
*STATIC
1, 1, 1e-05, 1
**
**
**
**
*END STEP
