*HEADING
cubit(entify/lib/Axisymmetric Indentation/true_mesh_coarse2.inp): 05/12/2024: 13
version: 2023.4
**
********************************** P A R T S **********************************
*PART, NAME=Part-Default
**
********************************** N O D E S **********************************
*NODE, NSET=ALLNODES
       1,    1.400000e+01,    3.500000e+00,    3.500000e+01
       2,    1.400000e+01,    7.000000e+00,    3.500000e+01
       3,    1.400000e+01,    1.050000e+01,    3.500000e+01
       4,    1.050000e+01,    1.400000e+01,    3.500000e+01
       5,    7.000000e+00,    1.400000e+01,    3.500000e+01
       6,    3.500000e+00,    1.400000e+01,    3.500000e+01
       7,    0.000000e+00,    0.000000e+00,    3.500000e+01
       8,    0.000000e+00,    1.050000e+01,    3.500000e+01
       9,    0.000000e+00,    7.000000e+00,    3.500000e+01
      10,    0.000000e+00,    3.500000e+00,    3.500000e+01
      11,    3.500000e+00,    0.000000e+00,    3.500000e+01
      12,    7.000000e+00,    0.000000e+00,    3.500000e+01
      13,    1.050000e+01,    0.000000e+00,    3.500000e+01
      14,    1.050000e+01,    3.500000e+00,    3.500000e+01
      15,    1.050000e+01,    7.000000e+00,    3.500000e+01
      16,    1.050000e+01,    1.050000e+01,    3.500000e+01
      17,    7.000000e+00,    3.500000e+00,    3.500000e+01
      18,    7.000000e+00,    7.000000e+00,    3.500000e+01
      19,    7.000000e+00,    1.050000e+01,    3.500000e+01
      20,    3.500000e+00,    3.500000e+00,    3.500000e+01
      21,    3.500000e+00,    7.000000e+00,    3.500000e+01
      22,    3.500000e+00,    1.050000e+01,    3.500000e+01
      23,    1.400000e+01,    1.050000e+01,    1.400000e+01
      24,    1.400000e+01,    7.000000e+00,    1.400000e+01
      25,    1.400000e+01,    3.500000e+00,    1.400000e+01
      26,    1.050000e+01,    0.000000e+00,    1.400000e+01
      27,    7.000000e+00,    0.000000e+00,    1.400000e+01
      28,    3.500000e+00,    0.000000e+00,    1.400000e+01
      29,    0.000000e+00,    3.500000e+00,    1.400000e+01
      30,    0.000000e+00,    7.000000e+00,    1.400000e+01
      31,    0.000000e+00,    1.050000e+01,    1.400000e+01
      32,    3.500000e+00,    1.400000e+01,    1.400000e+01
      33,    7.000000e+00,    1.400000e+01,    1.400000e+01
      34,    1.050000e+01,    1.400000e+01,    1.400000e+01
      35,    1.050000e+01,    1.050000e+01,    1.400000e+01
      36,    1.050000e+01,    7.000000e+00,    1.400000e+01
      37,    1.050000e+01,    3.500000e+00,    1.400000e+01
      38,    7.000000e+00,    1.050000e+01,    1.400000e+01
      39,    7.000000e+00,    7.000000e+00,    1.400000e+01
      40,    7.000000e+00,    3.500000e+00,    1.400000e+01
      41,    3.500000e+00,    1.050000e+01,    1.400000e+01
      42,    3.500000e+00,    7.000000e+00,    1.400000e+01
      43,    3.500000e+00,    3.500000e+00,    1.400000e+01
      44,    0.000000e+00,    0.000000e+00,    3.150000e+01
      45,    0.000000e+00,    0.000000e+00,    2.800000e+01
      46,    0.000000e+00,    0.000000e+00,    2.450000e+01
      47,    0.000000e+00,    0.000000e+00,    2.100000e+01
      48,    0.000000e+00,    0.000000e+00,    1.750000e+01
      49,    3.500000e+00,    0.000000e+00,    3.150000e+01
      50,    3.500000e+00,    0.000000e+00,    2.800000e+01
      51,    3.500000e+00,    0.000000e+00,    2.450000e+01
      52,    3.500000e+00,    0.000000e+00,    2.100000e+01
      53,    3.500000e+00,    0.000000e+00,    1.750000e+01
      54,    7.000000e+00,    0.000000e+00,    3.150000e+01
      55,    7.000000e+00,    0.000000e+00,    2.800000e+01
      56,    7.000000e+00,    0.000000e+00,    2.450000e+01
      57,    7.000000e+00,    0.000000e+00,    2.100000e+01
      58,    7.000000e+00,    0.000000e+00,    1.750000e+01
      59,    1.050000e+01,    0.000000e+00,    3.150000e+01
      60,    1.050000e+01,    0.000000e+00,    2.800000e+01
      61,    1.050000e+01,    0.000000e+00,    2.450000e+01
      62,    1.050000e+01,    0.000000e+00,    2.100000e+01
      63,    1.050000e+01,    0.000000e+00,    1.750000e+01
      64,    0.000000e+00,    1.050000e+01,    3.150000e+01
      65,    0.000000e+00,    1.050000e+01,    2.800000e+01
      66,    0.000000e+00,    1.050000e+01,    2.450000e+01
      67,    0.000000e+00,    1.050000e+01,    2.100000e+01
      68,    0.000000e+00,    1.050000e+01,    1.750000e+01
      69,    0.000000e+00,    7.000000e+00,    3.150000e+01
      70,    0.000000e+00,    7.000000e+00,    2.800000e+01
      71,    0.000000e+00,    7.000000e+00,    2.450000e+01
      72,    0.000000e+00,    7.000000e+00,    2.100000e+01
      73,    0.000000e+00,    7.000000e+00,    1.750000e+01
      74,    0.000000e+00,    3.500000e+00,    3.150000e+01
      75,    0.000000e+00,    3.500000e+00,    2.800000e+01
      76,    0.000000e+00,    3.500000e+00,    2.450000e+01
      77,    0.000000e+00,    3.500000e+00,    2.100000e+01
      78,    0.000000e+00,    3.500000e+00,    1.750000e+01
      79,    1.050000e+01,    1.400000e+01,    3.150000e+01
      80,    1.050000e+01,    1.400000e+01,    2.800000e+01
      81,    1.050000e+01,    1.400000e+01,    2.450000e+01
      82,    1.050000e+01,    1.400000e+01,    2.100000e+01
      83,    1.050000e+01,    1.400000e+01,    1.750000e+01
      84,    7.000000e+00,    1.400000e+01,    3.150000e+01
      85,    7.000000e+00,    1.400000e+01,    2.800000e+01
      86,    7.000000e+00,    1.400000e+01,    2.450000e+01
      87,    7.000000e+00,    1.400000e+01,    2.100000e+01
      88,    7.000000e+00,    1.400000e+01,    1.750000e+01
      89,    3.500000e+00,    1.400000e+01,    3.150000e+01
      90,    3.500000e+00,    1.400000e+01,    2.800000e+01
      91,    3.500000e+00,    1.400000e+01,    2.450000e+01
      92,    3.500000e+00,    1.400000e+01,    2.100000e+01
      93,    3.500000e+00,    1.400000e+01,    1.750000e+01
      94,    1.400000e+01,    3.500000e+00,    3.150000e+01
      95,    1.400000e+01,    3.500000e+00,    2.800000e+01
      96,    1.400000e+01,    3.500000e+00,    2.450000e+01
      97,    1.400000e+01,    3.500000e+00,    2.100000e+01
      98,    1.400000e+01,    3.500000e+00,    1.750000e+01
      99,    1.400000e+01,    7.000000e+00,    3.150000e+01
     100,    1.400000e+01,    7.000000e+00,    2.800000e+01
     101,    1.400000e+01,    7.000000e+00,    2.450000e+01
     102,    1.400000e+01,    7.000000e+00,    2.100000e+01
     103,    1.400000e+01,    7.000000e+00,    1.750000e+01
     104,    1.400000e+01,    1.050000e+01,    3.150000e+01
     105,    1.400000e+01,    1.050000e+01,    2.800000e+01
     106,    1.400000e+01,    1.050000e+01,    2.450000e+01
     107,    1.400000e+01,    1.050000e+01,    2.100000e+01
     108,    1.400000e+01,    1.050000e+01,    1.750000e+01
     109,    3.500000e+00,    3.500000e+00,    3.150000e+01
     110,    3.500000e+00,    3.500000e+00,    2.800000e+01
     111,    3.500000e+00,    3.500000e+00,    2.450000e+01
     112,    3.500000e+00,    3.500000e+00,    2.100000e+01
     113,    3.500000e+00,    3.500000e+00,    1.750000e+01
     114,    3.500000e+00,    7.000000e+00,    3.150000e+01
     115,    3.500000e+00,    7.000000e+00,    2.800000e+01
     116,    3.500000e+00,    7.000000e+00,    2.450000e+01
     117,    3.500000e+00,    7.000000e+00,    2.100000e+01
     118,    3.500000e+00,    7.000000e+00,    1.750000e+01
     119,    3.500000e+00,    1.050000e+01,    3.150000e+01
     120,    3.500000e+00,    1.050000e+01,    2.800000e+01
     121,    3.500000e+00,    1.050000e+01,    2.450000e+01
     122,    3.500000e+00,    1.050000e+01,    2.100000e+01
     123,    3.500000e+00,    1.050000e+01,    1.750000e+01
     124,    7.000000e+00,    3.500000e+00,    3.150000e+01
     125,    7.000000e+00,    3.500000e+00,    2.800000e+01
     126,    7.000000e+00,    3.500000e+00,    2.450000e+01
     127,    7.000000e+00,    3.500000e+00,    2.100000e+01
     128,    7.000000e+00,    3.500000e+00,    1.750000e+01
     129,    7.000000e+00,    7.000000e+00,    3.150000e+01
     130,    7.000000e+00,    7.000000e+00,    2.800000e+01
     131,    7.000000e+00,    7.000000e+00,    2.450000e+01
     132,    7.000000e+00,    7.000000e+00,    2.100000e+01
     133,    7.000000e+00,    7.000000e+00,    1.750000e+01
     134,    7.000000e+00,    1.050000e+01,    3.150000e+01
     135,    7.000000e+00,    1.050000e+01,    2.800000e+01
     136,    7.000000e+00,    1.050000e+01,    2.450000e+01
     137,    7.000000e+00,    1.050000e+01,    2.100000e+01
     138,    7.000000e+00,    1.050000e+01,    1.750000e+01
     139,    1.050000e+01,    3.500000e+00,    3.150000e+01
     140,    1.050000e+01,    3.500000e+00,    2.800000e+01
     141,    1.050000e+01,    3.500000e+00,    2.450000e+01
     142,    1.050000e+01,    3.500000e+00,    2.100000e+01
     143,    1.050000e+01,    3.500000e+00,    1.750000e+01
     144,    1.050000e+01,    7.000000e+00,    3.150000e+01
     145,    1.050000e+01,    7.000000e+00,    2.800000e+01
     146,    1.050000e+01,    7.000000e+00,    2.450000e+01
     147,    1.050000e+01,    7.000000e+00,    2.100000e+01
     148,    1.050000e+01,    7.000000e+00,    1.750000e+01
     149,    1.050000e+01,    1.050000e+01,    3.150000e+01
     150,    1.050000e+01,    1.050000e+01,    2.800000e+01
     151,    1.050000e+01,    1.050000e+01,    2.450000e+01
     152,    1.050000e+01,    1.050000e+01,    2.100000e+01
     153,    1.050000e+01,    1.050000e+01,    1.750000e+01
     154,    1.400000e+01,    1.400000e+01,    1.400000e+01
     155,    1.400000e+01,    0.000000e+00,    1.400000e+01
     156,    0.000000e+00,    1.400000e+01,    1.400000e+01
     157,    0.000000e+00,    0.000000e+00,    1.400000e+01
     158,    1.400000e+01,    1.400000e+01,    3.500000e+01
     159,    1.400000e+01,    1.400000e+01,    2.450000e+01
     160,    0.000000e+00,    1.400000e+01,    3.500000e+01
     161,    0.000000e+00,    1.400000e+01,    2.450000e+01
     162,    1.400000e+01,    0.000000e+00,    3.500000e+01
     163,    1.400000e+01,    0.000000e+00,    2.450000e+01
     164,    3.500000e+01,    0.000000e+00,    3.500000e+01
     165,    2.450000e+01,    0.000000e+00,    3.500000e+01
     166,    3.500000e+01,    3.500000e+01,    3.500000e+01
     167,    3.500000e+01,    1.166667e+01,    3.500000e+01
     168,    3.500000e+01,    2.333333e+01,    3.500000e+01
     169,    0.000000e+00,    3.500000e+01,    3.500000e+01
     170,    2.333333e+01,    3.500000e+01,    3.500000e+01
     171,    1.166667e+01,    3.500000e+01,    3.500000e+01
     172,    0.000000e+00,    2.450000e+01,    3.500000e+01
     173,    1.283333e+01,    2.450000e+01,    3.500000e+01
     174,    2.450000e+01,    1.283333e+01,    3.500000e+01
     175,    2.391667e+01,    2.391667e+01,    3.500000e+01
     176,    0.000000e+00,    0.000000e+00,   -3.500000e+01
     177,    0.000000e+00,    0.000000e+00,   -2.333333e+00
     178,    0.000000e+00,    0.000000e+00,   -1.866667e+01
     179,    3.500000e+01,    0.000000e+00,   -3.500000e+01
     180,    2.333333e+01,    0.000000e+00,   -3.500000e+01
     181,    1.166667e+01,    0.000000e+00,   -3.500000e+01
     182,    3.500000e+01,    0.000000e+00,    2.100000e+01
     183,    3.500000e+01,    0.000000e+00,    7.000000e+00
     184,    3.500000e+01,    0.000000e+00,   -7.000000e+00
     185,    3.500000e+01,    0.000000e+00,   -2.100000e+01
     186,    2.450000e+01,    0.000000e+00,    1.050000e+01
     187,    1.322222e+01,    0.000000e+00,   -2.333333e+00
     188,    1.244444e+01,    0.000000e+00,   -1.866667e+01
     189,    2.411111e+01,    0.000000e+00,   -4.666667e+00
     190,    2.372222e+01,    0.000000e+00,   -1.983333e+01
     191,    2.450000e+01,    0.000000e+00,    2.275000e+01
     192,    3.500000e+01,    3.500000e+01,   -3.500000e+01
     193,    3.500000e+01,    2.333333e+01,   -3.500000e+01
     194,    3.500000e+01,    1.166667e+01,   -3.500000e+01
     195,    0.000000e+00,    3.500000e+01,   -3.500000e+01
     196,    0.000000e+00,    1.166667e+01,   -3.500000e+01
     197,    0.000000e+00,    2.333333e+01,   -3.500000e+01
     198,    1.166667e+01,    3.500000e+01,   -3.500000e+01
     199,    2.333333e+01,    3.500000e+01,   -3.500000e+01
     200,    2.333333e+01,    2.333333e+01,   -3.500000e+01
     201,    2.333333e+01,    1.166667e+01,   -3.500000e+01
     202,    1.166667e+01,    2.333333e+01,   -3.500000e+01
     203,    1.166667e+01,    1.166667e+01,   -3.500000e+01
     204,    0.000000e+00,    3.500000e+01,    2.100000e+01
     205,    0.000000e+00,    3.500000e+01,    7.000000e+00
     206,    0.000000e+00,    3.500000e+01,   -7.000000e+00
     207,    0.000000e+00,    3.500000e+01,   -2.100000e+01
     208,    0.000000e+00,    2.450000e+01,    1.050000e+01
     209,    0.000000e+00,    2.450000e+01,    2.275000e+01
     210,    0.000000e+00,    2.411111e+01,   -4.666667e+00
     211,    0.000000e+00,    2.372222e+01,   -1.983333e+01
     212,    0.000000e+00,    1.322222e+01,   -2.333333e+00
     213,    0.000000e+00,    1.244444e+01,   -1.866667e+01
     214,    3.500000e+01,    3.500000e+01,    2.100000e+01
     215,    3.500000e+01,    3.500000e+01,    7.000000e+00
     216,    3.500000e+01,    3.500000e+01,   -7.000000e+00
     217,    3.500000e+01,    3.500000e+01,   -2.100000e+01
     218,    2.333333e+01,    3.500000e+01,    2.100000e+01
     219,    2.333333e+01,    3.500000e+01,    7.000000e+00
     220,    2.333333e+01,    3.500000e+01,   -7.000000e+00
     221,    2.333333e+01,    3.500000e+01,   -2.100000e+01
     222,    1.166667e+01,    3.500000e+01,    2.100000e+01
     223,    1.166667e+01,    3.500000e+01,    7.000000e+00
     224,    1.166667e+01,    3.500000e+01,   -7.000000e+00
     225,    1.166667e+01,    3.500000e+01,   -2.100000e+01
     226,    3.500000e+01,    1.166667e+01,    2.100000e+01
     227,    3.500000e+01,    1.166667e+01,    7.000000e+00
     228,    3.500000e+01,    1.166667e+01,   -7.000000e+00
     229,    3.500000e+01,    1.166667e+01,   -2.100000e+01
     230,    3.500000e+01,    2.333333e+01,    2.100000e+01
     231,    3.500000e+01,    2.333333e+01,    7.000000e+00
     232,    3.500000e+01,    2.333333e+01,   -7.000000e+00
     233,    3.500000e+01,    2.333333e+01,   -2.100000e+01
     234,    2.450000e+01,    1.283333e+01,    1.050000e+01
     235,    1.283333e+01,    2.450000e+01,    1.050000e+01
     236,    2.391667e+01,    2.391667e+01,    8.750000e+00
     237,    1.244444e+01,    1.244444e+01,   -1.866667e+01
     238,    2.372222e+01,    1.205556e+01,   -1.983333e+01
     239,    1.205556e+01,    2.372222e+01,   -1.983333e+01
     240,    2.352778e+01,    2.352778e+01,   -2.041667e+01
     241,    1.322222e+01,    1.322222e+01,   -2.333333e+00
     242,    2.411111e+01,    1.244444e+01,   -4.666667e+00
     243,    1.244444e+01,    2.411111e+01,   -4.666667e+00
     244,    2.372222e+01,    2.372222e+01,   -5.833333e+00
     245,    2.450000e+01,    1.283333e+01,    2.275000e+01
     246,    1.283333e+01,    2.450000e+01,    2.275000e+01
     247,    2.391667e+01,    2.391667e+01,    2.187500e+01
     248,    1.361111e+01,    1.750000e+01,    1.283333e+01
     249,    1.750000e+01,    1.361111e+01,    1.283333e+01
     250,    1.374074e+01,    1.374074e+01,    8.555556e+00
     251,    1.717593e+01,    1.717593e+01,    1.186111e+01
     252,    1.728395e+01,    1.339506e+01,    7.518519e+00
     253,    1.339506e+01,    1.728395e+01,    7.518519e+00
     254,    1.699588e+01,    1.699588e+01,    6.654321e+00
     255,    1.750000e+01,    0.000000e+00,    1.283333e+01
     256,    1.374074e+01,    0.000000e+00,    8.555556e+00
     257,    1.728395e+01,    0.000000e+00,    7.518519e+00
     258,    0.000000e+00,    1.750000e+01,    1.283333e+01
     259,    0.000000e+00,    1.374074e+01,    8.555556e+00
     260,    0.000000e+00,    1.728395e+01,    7.518519e+00
     261,    1.750000e+01,    1.361111e+01,    2.391667e+01
     262,    1.361111e+01,    1.750000e+01,    2.391667e+01
     263,    1.717593e+01,    1.717593e+01,    2.343056e+01
     264,    1.750000e+01,    1.361111e+01,    3.500000e+01
     265,    1.361111e+01,    1.750000e+01,    3.500000e+01
     266,    1.717593e+01,    1.717593e+01,    3.500000e+01
     267,    0.000000e+00,    0.000000e+00,    8.555556e+00
     268,    0.000000e+00,    1.750000e+01,    2.391667e+01
     269,    0.000000e+00,    1.750000e+01,    3.500000e+01
     270,    1.750000e+01,    0.000000e+00,    2.391667e+01
     271,    1.750000e+01,    0.000000e+00,    3.500000e+01
     272,    1.374074e+01,    9.160494e+00,    8.555556e+00
     273,    1.374074e+01,    4.580247e+00,    8.555556e+00
     274,    1.728395e+01,    4.465021e+00,    7.518519e+00
     275,    1.728395e+01,    8.930041e+00,    7.518519e+00
     276,    1.750000e+01,    4.537037e+00,    1.283333e+01
     277,    1.750000e+01,    9.074074e+00,    1.283333e+01
     278,    1.400000e+01,    9.333333e+00,    1.400000e+01
     279,    1.400000e+01,    4.666667e+00,    1.400000e+01
     280,    1.400000e+01,    4.666667e+00,    2.450000e+01
     281,    1.400000e+01,    9.333333e+00,    2.450000e+01
     282,    1.750000e+01,    4.537037e+00,    2.391667e+01
     283,    1.750000e+01,    9.074074e+00,    2.391667e+01
     284,    1.750000e+01,    4.537037e+00,    3.500000e+01
     285,    1.750000e+01,    9.074074e+00,    3.500000e+01
     286,    1.400000e+01,    9.333333e+00,    3.500000e+01
     287,    1.400000e+01,    4.666667e+00,    3.500000e+01
     288,    0.000000e+00,    4.580247e+00,    8.555556e+00
     289,    0.000000e+00,    9.160494e+00,    8.555556e+00
     290,    0.000000e+00,    4.666667e+00,    1.400000e+01
     291,    0.000000e+00,    9.333333e+00,    1.400000e+01
     292,    2.100000e+01,    4.407407e+00,    2.333333e+01
     293,    2.100000e+01,    8.814815e+00,    2.333333e+01
     294,    2.100000e+01,    4.407407e+00,    3.500000e+01
     295,    2.100000e+01,    8.814815e+00,    3.500000e+01
     296,    2.100000e+01,    4.407407e+00,    1.166667e+01
     297,    2.100000e+01,    8.814815e+00,    1.166667e+01
     298,    2.069753e+01,    4.306584e+00,    1.425926e+00
     299,    2.069753e+01,    8.613169e+00,    1.425926e+00
     300,    1.348148e+01,    8.987654e+00,    3.111111e+00
     301,    1.348148e+01,    4.493827e+00,    3.111111e+00
     302,    0.000000e+00,    8.987654e+00,    3.111111e+00
     303,    0.000000e+00,    4.493827e+00,    3.111111e+00
     304,    4.580247e+00,    1.374074e+01,    8.555556e+00
     305,    9.160494e+00,    1.374074e+01,    8.555556e+00
     306,    4.666667e+00,    1.400000e+01,    1.400000e+01
     307,    9.333333e+00,    1.400000e+01,    1.400000e+01
     308,    4.666667e+00,    9.333333e+00,    1.400000e+01
     309,    9.333333e+00,    9.333333e+00,    1.400000e+01
     310,    4.580247e+00,    9.160494e+00,    8.555556e+00
     311,    9.160494e+00,    9.160494e+00,    8.555556e+00
     312,    4.666667e+00,    4.666667e+00,    1.400000e+01
     313,    9.333333e+00,    4.666667e+00,    1.400000e+01
     314,    4.580247e+00,    4.580247e+00,    8.555556e+00
     315,    9.160494e+00,    4.580247e+00,    8.555556e+00
     316,    9.333333e+00,    0.000000e+00,    1.400000e+01
     317,    4.666667e+00,    0.000000e+00,    1.400000e+01
     318,    4.580247e+00,    0.000000e+00,    8.555556e+00
     319,    9.160494e+00,    0.000000e+00,    8.555556e+00
     320,    9.333333e+00,    1.400000e+01,    2.450000e+01
     321,    4.666667e+00,    1.400000e+01,    2.450000e+01
     322,    9.074074e+00,    1.750000e+01,    2.391667e+01
     323,    4.537037e+00,    1.750000e+01,    2.391667e+01
     324,    9.074074e+00,    1.750000e+01,    3.500000e+01
     325,    4.537037e+00,    1.750000e+01,    3.500000e+01
     326,    4.666667e+00,    1.400000e+01,    3.500000e+01
     327,    9.333333e+00,    1.400000e+01,    3.500000e+01
     328,    9.074074e+00,    1.750000e+01,    1.283333e+01
     329,    4.537037e+00,    1.750000e+01,    1.283333e+01
     330,    8.930041e+00,    1.728395e+01,    7.518519e+00
     331,    4.465021e+00,    1.728395e+01,    7.518519e+00
     332,    8.814815e+00,    2.100000e+01,    2.333333e+01
     333,    4.407407e+00,    2.100000e+01,    2.333333e+01
     334,    8.814815e+00,    2.100000e+01,    3.500000e+01
     335,    4.407407e+00,    2.100000e+01,    3.500000e+01
     336,    4.537037e+00,    4.537037e+00,    5.833333e+00
     337,    9.074074e+00,    4.537037e+00,    5.833333e+00
     338,    4.493827e+00,    0.000000e+00,    3.111111e+00
     339,    8.987654e+00,    0.000000e+00,    3.111111e+00
     340,    4.537037e+00,    9.074074e+00,    5.833333e+00
     341,    9.074074e+00,    9.074074e+00,    5.833333e+00
     342,    8.814815e+00,    2.100000e+01,    1.166667e+01
     343,    4.407407e+00,    2.100000e+01,    1.166667e+01
     344,    8.613169e+00,    2.069753e+01,    1.425926e+00
     345,    4.306584e+00,    2.069753e+01,    1.425926e+00
     346,    4.493827e+00,    1.348148e+01,    3.111111e+00
     347,    8.987654e+00,    1.348148e+01,    3.111111e+00
     348,    1.750000e+01,    1.361111e+01,    2.022222e+01
     349,    1.750000e+01,    1.361111e+01,    1.652778e+01
     350,    1.400000e+01,    1.400000e+01,    2.100000e+01
     351,    1.400000e+01,    1.400000e+01,    1.750000e+01
     352,    1.361111e+01,    1.750000e+01,    2.022222e+01
     353,    1.361111e+01,    1.750000e+01,    1.652778e+01
     354,    1.717593e+01,    1.717593e+01,    1.957407e+01
     355,    1.717593e+01,    1.717593e+01,    1.571759e+01
     356,    4.666667e+00,    1.400000e+01,    1.750000e+01
     357,    4.666667e+00,    1.400000e+01,    2.100000e+01
     358,    4.537037e+00,    1.750000e+01,    1.652778e+01
     359,    4.537037e+00,    1.750000e+01,    2.022222e+01
     360,    9.074074e+00,    1.750000e+01,    1.652778e+01
     361,    9.074074e+00,    1.750000e+01,    2.022222e+01
     362,    9.333333e+00,    1.400000e+01,    1.750000e+01
     363,    9.333333e+00,    1.400000e+01,    2.100000e+01
     364,    0.000000e+00,    1.400000e+01,    1.750000e+01
     365,    0.000000e+00,    1.400000e+01,    2.100000e+01
     366,    0.000000e+00,    1.750000e+01,    2.022222e+01
     367,    0.000000e+00,    1.750000e+01,    1.652778e+01
     368,    1.750000e+01,    9.074074e+00,    1.652778e+01
     369,    1.750000e+01,    9.074074e+00,    2.022222e+01
     370,    1.400000e+01,    9.333333e+00,    1.750000e+01
     371,    1.400000e+01,    9.333333e+00,    2.100000e+01
     372,    1.750000e+01,    4.537037e+00,    1.652778e+01
     373,    1.750000e+01,    4.537037e+00,    2.022222e+01
     374,    1.400000e+01,    4.666667e+00,    1.750000e+01
     375,    1.400000e+01,    4.666667e+00,    2.100000e+01
     376,    1.750000e+01,    0.000000e+00,    1.652778e+01
     377,    1.750000e+01,    0.000000e+00,    2.022222e+01
     378,    1.400000e+01,    0.000000e+00,    2.100000e+01
     379,    1.400000e+01,    0.000000e+00,    1.750000e+01
     380,    2.054630e+01,    2.054630e+01,    1.853704e+01
     381,    2.054630e+01,    2.054630e+01,    1.442130e+01
     382,    1.322222e+01,    2.100000e+01,    1.944444e+01
     383,    1.322222e+01,    2.100000e+01,    1.555556e+01
     384,    0.000000e+00,    2.100000e+01,    1.944444e+01
     385,    0.000000e+00,    2.100000e+01,    1.555556e+01
     386,    4.472222e+00,    1.925000e+01,    1.983333e+01
     387,    4.472222e+00,    1.925000e+01,    1.604167e+01
     388,    8.944444e+00,    1.925000e+01,    1.604167e+01
     389,    8.944444e+00,    1.925000e+01,    1.983333e+01
     390,    2.100000e+01,    1.322222e+01,    1.944444e+01
     391,    2.100000e+01,    1.322222e+01,    1.555556e+01
     392,    1.925000e+01,    8.944444e+00,    1.983333e+01
     393,    1.925000e+01,    8.944444e+00,    1.604167e+01
     394,    1.925000e+01,    4.472222e+00,    1.604167e+01
     395,    1.925000e+01,    4.472222e+00,    1.983333e+01
     396,    2.100000e+01,    0.000000e+00,    1.555556e+01
     397,    2.100000e+01,    0.000000e+00,    1.944444e+01
     398,    1.400000e+01,    1.400000e+01,    3.150000e+01
     399,    1.400000e+01,    1.400000e+01,    2.800000e+01
     400,    1.750000e+01,    1.361111e+01,    2.761111e+01
     401,    1.750000e+01,    1.361111e+01,    3.130556e+01
     402,    1.750000e+01,    9.074074e+00,    2.761111e+01
     403,    1.750000e+01,    9.074074e+00,    3.130556e+01
     404,    1.400000e+01,    9.333333e+00,    2.800000e+01
     405,    1.400000e+01,    9.333333e+00,    3.150000e+01
     406,    9.333333e+00,    1.400000e+01,    2.800000e+01
     407,    9.333333e+00,    1.400000e+01,    3.150000e+01
     408,    9.074074e+00,    1.750000e+01,    2.761111e+01
     409,    9.074074e+00,    1.750000e+01,    3.130556e+01
     410,    1.361111e+01,    1.750000e+01,    2.761111e+01
     411,    1.361111e+01,    1.750000e+01,    3.130556e+01
     412,    4.666667e+00,    1.400000e+01,    2.800000e+01
     413,    4.666667e+00,    1.400000e+01,    3.150000e+01
     414,    4.537037e+00,    1.750000e+01,    2.761111e+01
     415,    4.537037e+00,    1.750000e+01,    3.130556e+01
     416,    1.750000e+01,    4.537037e+00,    2.761111e+01
     417,    1.750000e+01,    4.537037e+00,    3.130556e+01
     418,    1.400000e+01,    4.666667e+00,    2.800000e+01
     419,    1.400000e+01,    4.666667e+00,    3.150000e+01
     420,    1.750000e+01,    0.000000e+00,    2.761111e+01
     421,    1.750000e+01,    0.000000e+00,    3.130556e+01
     422,    1.400000e+01,    0.000000e+00,    3.150000e+01
     423,    1.400000e+01,    0.000000e+00,    2.800000e+01
     424,    0.000000e+00,    1.400000e+01,    2.800000e+01
     425,    0.000000e+00,    1.400000e+01,    3.150000e+01
     426,    0.000000e+00,    1.750000e+01,    3.130556e+01
     427,    0.000000e+00,    1.750000e+01,    2.761111e+01
     428,    1.717593e+01,    1.717593e+01,    3.114352e+01
     429,    1.717593e+01,    1.717593e+01,    2.728704e+01
     430,    8.944444e+00,    1.925000e+01,    2.741667e+01
     431,    8.944444e+00,    1.925000e+01,    3.120833e+01
     432,    1.322222e+01,    2.100000e+01,    2.722222e+01
     433,    1.322222e+01,    2.100000e+01,    3.111111e+01
     434,    0.000000e+00,    2.100000e+01,    3.111111e+01
     435,    0.000000e+00,    2.100000e+01,    2.722222e+01
     436,    4.472222e+00,    1.925000e+01,    3.120833e+01
     437,    4.472222e+00,    1.925000e+01,    2.741667e+01
     438,    1.925000e+01,    8.944444e+00,    2.741667e+01
     439,    1.925000e+01,    8.944444e+00,    3.120833e+01
     440,    1.925000e+01,    4.472222e+00,    2.741667e+01
     441,    1.925000e+01,    4.472222e+00,    3.120833e+01
     442,    2.100000e+01,    0.000000e+00,    2.722222e+01
     443,    2.100000e+01,    0.000000e+00,    3.111111e+01
     444,    2.054630e+01,    2.054630e+01,    3.088426e+01
     445,    2.054630e+01,    2.054630e+01,    2.676852e+01
     446,    2.100000e+01,    1.322222e+01,    2.722222e+01
     447,    2.100000e+01,    1.322222e+01,    3.111111e+01
**
********************************** E L E M E N T S ****************************
*ELEMENT, TYPE=C3D8R, ELSET=EB1
       1,     176,     181,     203,     196,     178,     188,     237,     213
       2,     181,     180,     201,     203,     188,     190,     238,     237
       3,     180,     179,     194,     201,     190,     185,     229,     238
       4,     196,     203,     202,     197,     213,     237,     239,     211
       5,     203,     201,     200,     202,     237,     238,     240,     239
       6,     201,     194,     193,     200,     238,     229,     233,     240
       7,     197,     202,     198,     195,     211,     239,     225,     207
       8,     202,     200,     199,     198,     239,     240,     221,     225
       9,     200,     193,     192,     199,     240,     233,     217,     221
      10,     178,     188,     237,     213,     177,     187,     241,     212
      11,     188,     190,     238,     237,     187,     189,     242,     241
      12,     190,     185,     229,     238,     189,     184,     228,     242
      13,     213,     237,     239,     211,     212,     241,     243,     210
      14,     237,     238,     240,     239,     241,     242,     244,     243
      15,     238,     229,     233,     240,     242,     228,     232,     244
      16,     211,     239,     225,     207,     210,     243,     224,     206
      17,     239,     240,     221,     225,     243,     244,     220,     224
      18,     240,     233,     217,     221,     244,     232,     216,     220
      19,     189,     184,     228,     242,     186,     183,     227,     234
      20,     242,     228,     232,     244,     234,     227,     231,     236
      21,     210,     243,     224,     206,     208,     235,     223,     205
      22,     243,     244,     220,     224,     235,     236,     219,     223
      23,     244,     232,     216,     220,     236,     231,     215,     219
      24,     234,     227,     231,     236,     245,     226,     230,     247
      25,     208,     235,     223,     205,     209,     246,     222,     204
      26,     235,     236,     219,     223,     246,     247,     218,     222
      27,     236,     231,     215,     219,     247,     230,     214,     218
      28,     245,     226,     230,     247,     174,     167,     168,     175
      29,     209,     246,     222,     204,     172,     173,     171,     169
      30,     246,     247,     218,     222,     173,     175,     170,     171
      31,     247,     230,     214,     218,     175,     168,     166,     170
      32,     186,     183,     227,     234,     191,     182,     226,     245
      33,     191,     182,     226,     245,     165,     164,     167,     174
      34,     250,     252,     254,     253,     154,     249,     251,     248
      35,     252,     242,     244,     254,     249,     234,     236,     251
      36,     253,     254,     244,     243,     248,     251,     236,     235
      37,     241,     242,     244,     243,     250,     252,     254,     253
      38,     250,     252,     249,     154,     272,     275,     277,     278
      39,     272,     275,     277,     278,     273,     274,     276,     279
      40,     273,     274,     276,     279,     256,     257,     255,     155
      41,     292,     191,     245,     293,     294,     165,     174,     295
      42,     296,     186,     234,     297,     292,     191,     245,     293
      43,     257,     189,     298,     274,     255,     186,     296,     276
      44,     274,     298,     299,     275,     276,     296,     297,     277
      45,     275,     299,     242,     252,     277,     297,     234,     249
      46,     298,     189,     242,     299,     296,     186,     234,     297
      47,     177,     187,     241,     212,     303,     301,     300,     302
      48,     187,     189,     298,     301,     256,     257,     274,     273
      49,     301,     298,     299,     300,     273,     274,     275,     272
      50,     300,     299,     242,     241,     272,     275,     252,     250
      51,     187,     189,     242,     241,     301,     298,     299,     300
      52,     259,     156,     291,     289,     304,     306,     308,     310
      53,     304,     306,     308,     310,     305,     307,     309,     311
      54,     305,     307,     309,     311,     250,     154,     278,     272
      55,     289,     291,     290,     288,     310,     308,     312,     314
      56,     310,     308,     312,     314,     311,     309,     313,     315
      57,     311,     309,     313,     315,     272,     278,     279,     273
      58,     288,     290,     157,     267,     314,     312,     317,     318
      59,     314,     312,     317,     318,     315,     313,     316,     319
      60,     315,     313,     316,     319,     273,     279,     155,     256
      61,     259,     260,     258,     156,     304,     331,     329,     306
      62,     304,     331,     329,     306,     305,     330,     328,     307
      63,     305,     330,     328,     307,     250,     253,     248,     154
      64,     333,     332,     246,     209,     335,     334,     173,     172
      65,     177,     338,     336,     303,     267,     318,     314,     288
      66,     338,     339,     337,     336,     318,     319,     315,     314
      67,     339,     187,     301,     337,     319,     256,     273,     315
      68,     177,     187,     301,     303,     338,     339,     337,     336
      69,     303,     336,     340,     302,     288,     314,     310,     289
      70,     336,     337,     341,     340,     314,     315,     311,     310
      71,     337,     301,     300,     341,     315,     273,     272,     311
      72,     303,     301,     300,     302,     336,     337,     341,     340
      73,     343,     342,     235,     208,     333,     332,     246,     209
      74,     330,     253,     243,     344,     328,     248,     235,     342
      75,     331,     330,     344,     345,     329,     328,     342,     343
      76,     260,     331,     345,     210,     258,     329,     343,     208
      77,     345,     344,     243,     210,     343,     342,     235,     208
      78,     302,     340,     346,     212,     289,     310,     304,     259
      79,     340,     341,     347,     346,     310,     311,     305,     304
      80,     341,     300,     241,     347,     311,     272,     250,     305
      81,     302,     300,     241,     212,     340,     341,     347,     346
      82,     212,     346,     345,     210,     259,     304,     331,     260
      83,     346,     347,     344,     345,     304,     305,     330,     331
      84,     347,     241,     243,     344,     305,     250,     253,     330
      85,     212,     241,     243,     210,     346,     347,     344,     345
      86,     261,     159,     262,     263,     348,     350,     352,     354
      87,     348,     350,     352,     354,     349,     351,     353,     355
      88,     349,     351,     353,     355,     249,     154,     248,     251
      89,     321,     323,     322,     320,     357,     359,     361,     363
      90,     357,     359,     361,     363,     356,     358,     360,     362
      91,     356,     358,     360,     362,     306,     329,     328,     307
      92,     161,     268,     323,     321,     365,     366,     359,     357
      93,     365,     366,     359,     357,     364,     367,     358,     356
      94,     364,     367,     358,     356,     156,     258,     329,     306
      95,     320,     322,     262,     159,     363,     361,     352,     350
      96,     363,     361,     352,     350,     362,     360,     353,     351
      97,     362,     360,     353,     351,     307,     328,     248,     154
      98,     159,     261,     283,     281,     350,     348,     369,     371
      99,     350,     348,     369,     371,     351,     349,     368,     370
     100,     351,     349,     368,     370,     154,     249,     277,     278
     101,     281,     283,     282,     280,     371,     369,     373,     375
     102,     371,     369,     373,     375,     370,     368,     372,     374
     103,     370,     368,     372,     374,     278,     277,     276,     279
     104,     280,     282,     270,     163,     375,     373,     377,     378
     105,     375,     373,     377,     378,     374,     372,     376,     379
     106,     374,     372,     376,     379,     279,     276,     255,     155
     107,     352,     354,     380,     382,     262,     263,     247,     246
     108,     353,     355,     381,     383,     352,     354,     380,     382
     109,     248,     251,     236,     235,     353,     355,     381,     383
     110,     383,     381,     236,     235,     382,     380,     247,     246
     111,     366,     359,     386,     384,     268,     323,     333,     209
     112,     367,     358,     387,     385,     366,     359,     386,     384
     113,     258,     329,     343,     208,     367,     358,     387,     385
     114,     385,     387,     343,     208,     384,     386,     333,     209
     115,     328,     248,     235,     342,     360,     353,     383,     388
     116,     360,     353,     383,     388,     361,     352,     382,     389
     117,     361,     352,     382,     389,     322,     262,     246,     332
     118,     388,     383,     235,     342,     389,     382,     246,     332
     119,     329,     328,     342,     343,     358,     360,     388,     387
     120,     358,     360,     388,     387,     359,     361,     389,     386
     121,     359,     361,     389,     386,     323,     322,     332,     333
     122,     387,     388,     342,     343,     386,     389,     332,     333
     123,     348,     390,     380,     354,     261,     245,     247,     263
     124,     349,     391,     381,     355,     348,     390,     380,     354
     125,     249,     234,     236,     251,     349,     391,     381,     355
     126,     391,     234,     236,     381,     390,     245,     247,     380
     127,     369,     392,     390,     348,     283,     293,     245,     261
     128,     368,     393,     391,     349,     369,     392,     390,     348
     129,     277,     297,     234,     249,     368,     393,     391,     349
     130,     393,     297,     234,     391,     392,     293,     245,     390
     131,     255,     186,     296,     276,     376,     396,     394,     372
     132,     376,     396,     394,     372,     377,     397,     395,     373
     133,     377,     397,     395,     373,     270,     191,     292,     282
     134,     396,     186,     296,     394,     397,     191,     292,     395
     135,     276,     296,     297,     277,     372,     394,     393,     368
     136,     372,     394,     393,     368,     373,     395,     392,     369
     137,     373,     395,     392,     369,     282,     292,     293,     283
     138,     394,     296,     297,     393,     395,     292,     293,     392
     139,     158,     264,     285,     286,     398,     401,     403,     405
     140,     398,     401,     403,     405,     399,     400,     402,     404
     141,     399,     400,     402,     404,     159,     261,     283,     281
     142,     327,     324,     265,     158,     407,     409,     411,     398
     143,     407,     409,     411,     398,     406,     408,     410,     399
     144,     406,     408,     410,     399,     320,     322,     262,     159
     145,     326,     325,     324,     327,     413,     415,     409,     407
     146,     413,     415,     409,     407,     412,     414,     408,     406
     147,     412,     414,     408,     406,     321,     323,     322,     320
     148,     286,     285,     284,     287,     405,     403,     417,     419
     149,     405,     403,     417,     419,     404,     402,     416,     418
     150,     404,     402,     416,     418,     281,     283,     282,     280
     151,     287,     284,     271,     162,     419,     417,     421,     422
     152,     419,     417,     421,     422,     418,     416,     420,     423
     153,     418,     416,     420,     423,     280,     282,     270,     163
     154,     160,     269,     325,     326,     425,     426,     415,     413
     155,     425,     426,     415,     413,     424,     427,     414,     412
     156,     424,     427,     414,     412,     161,     268,     323,     321
     157,     264,     158,     265,     266,     401,     398,     411,     428
     158,     401,     398,     411,     428,     400,     399,     410,     429
     159,     400,     399,     410,     429,     261,     159,     262,     263
     160,     322,     262,     246,     332,     408,     410,     432,     430
     161,     408,     410,     432,     430,     409,     411,     433,     431
     162,     409,     411,     433,     431,     324,     265,     173,     334
     163,     430,     432,     246,     332,     431,     433,     173,     334
     164,     426,     415,     436,     434,     269,     325,     335,     172
     165,     427,     414,     437,     435,     426,     415,     436,     434
     166,     268,     323,     333,     209,     427,     414,     437,     435
     167,     435,     437,     333,     209,     434,     436,     335,     172
     168,     282,     292,     293,     283,     416,     440,     438,     402
     169,     416,     440,     438,     402,     417,     441,     439,     403
     170,     417,     441,     439,     403,     284,     294,     295,     285
     171,     440,     292,     293,     438,     441,     294,     295,     439
     172,     270,     191,     292,     282,     420,     442,     440,     416
     173,     420,     442,     440,     416,     421,     443,     441,     417
     174,     421,     443,     441,     417,     271,     165,     294,     284
     175,     442,     191,     292,     440,     443,     165,     294,     441
     176,     323,     322,     332,     333,     414,     408,     430,     437
     177,     414,     408,     430,     437,     415,     409,     431,     436
     178,     415,     409,     431,     436,     325,     324,     334,     335
     179,     437,     430,     332,     333,     436,     431,     334,     335
     180,     411,     428,     444,     433,     265,     266,     175,     173
     181,     410,     429,     445,     432,     411,     428,     444,     433
     182,     262,     263,     247,     246,     410,     429,     445,     432
     183,     432,     445,     247,     246,     433,     444,     175,     173
     184,     283,     293,     245,     261,     402,     438,     446,     400
     185,     402,     438,     446,     400,     403,     439,     447,     401
     186,     403,     439,     447,     401,     285,     295,     174,     264
     187,     438,     293,     245,     446,     439,     295,     174,     447
     188,     261,     245,     247,     263,     400,     446,     445,     429
     189,     400,     446,     445,     429,     401,     447,     444,     428
     190,     401,     447,     444,     428,     264,     174,     175,     266
     191,     446,     245,     247,     445,     447,     174,     175,     444
     192,       7,      44,      74,      10,      11,      49,     109,      20
     193,      44,      45,      75,      74,      49,      50,     110,     109
     194,      45,      46,      76,      75,      50,      51,     111,     110
     195,      46,      47,      77,      76,      51,      52,     112,     111
     196,      47,      48,      78,      77,      52,      53,     113,     112
     197,      48,     157,      29,      78,      53,      28,      43,     113
     198,      10,      74,      69,       9,      20,     109,     114,      21
     199,      74,      75,      70,      69,     109,     110,     115,     114
     200,      75,      76,      71,      70,     110,     111,     116,     115
     201,      76,      77,      72,      71,     111,     112,     117,     116
     202,      77,      78,      73,      72,     112,     113,     118,     117
     203,      78,      29,      30,      73,     113,      43,      42,     118
     204,       9,      69,      64,       8,      21,     114,     119,      22
     205,      69,      70,      65,      64,     114,     115,     120,     119
     206,      70,      71,      66,      65,     115,     116,     121,     120
     207,      71,      72,      67,      66,     116,     117,     122,     121
     208,      72,      73,      68,      67,     117,     118,     123,     122
     209,      73,      30,      31,      68,     118,      42,      41,     123
     210,       8,      64,     425,     160,      22,     119,      89,       6
     211,      64,      65,     424,     425,     119,     120,      90,      89
     212,      65,      66,     161,     424,     120,     121,      91,      90
     213,      66,      67,     365,     161,     121,     122,      92,      91
     214,      67,      68,     364,     365,     122,     123,      93,      92
     215,      68,      31,     156,     364,     123,      41,      32,      93
     216,      11,      49,     109,      20,      12,      54,     124,      17
     217,      49,      50,     110,     109,      54,      55,     125,     124
     218,      50,      51,     111,     110,      55,      56,     126,     125
     219,      51,      52,     112,     111,      56,      57,     127,     126
     220,      52,      53,     113,     112,      57,      58,     128,     127
     221,      53,      28,      43,     113,      58,      27,      40,     128
     222,      20,     109,     114,      21,      17,     124,     129,      18
     223,     109,     110,     115,     114,     124,     125,     130,     129
     224,     110,     111,     116,     115,     125,     126,     131,     130
     225,     111,     112,     117,     116,     126,     127,     132,     131
     226,     112,     113,     118,     117,     127,     128,     133,     132
     227,     113,      43,      42,     118,     128,      40,      39,     133
     228,      21,     114,     119,      22,      18,     129,     134,      19
     229,     114,     115,     120,     119,     129,     130,     135,     134
     230,     115,     116,     121,     120,     130,     131,     136,     135
     231,     116,     117,     122,     121,     131,     132,     137,     136
     232,     117,     118,     123,     122,     132,     133,     138,     137
     233,     118,      42,      41,     123,     133,      39,      38,     138
     234,      22,     119,      89,       6,      19,     134,      84,       5
     235,     119,     120,      90,      89,     134,     135,      85,      84
     236,     120,     121,      91,      90,     135,     136,      86,      85
     237,     121,     122,      92,      91,     136,     137,      87,      86
     238,     122,     123,      93,      92,     137,     138,      88,      87
     239,     123,      41,      32,      93,     138,      38,      33,      88
     240,      12,      54,     124,      17,      13,      59,     139,      14
     241,      54,      55,     125,     124,      59,      60,     140,     139
     242,      55,      56,     126,     125,      60,      61,     141,     140
     243,      56,      57,     127,     126,      61,      62,     142,     141
     244,      57,      58,     128,     127,      62,      63,     143,     142
     245,      58,      27,      40,     128,      63,      26,      37,     143
     246,      17,     124,     129,      18,      14,     139,     144,      15
     247,     124,     125,     130,     129,     139,     140,     145,     144
     248,     125,     126,     131,     130,     140,     141,     146,     145
     249,     126,     127,     132,     131,     141,     142,     147,     146
     250,     127,     128,     133,     132,     142,     143,     148,     147
     251,     128,      40,      39,     133,     143,      37,      36,     148
     252,      18,     129,     134,      19,      15,     144,     149,      16
     253,     129,     130,     135,     134,     144,     145,     150,     149
     254,     130,     131,     136,     135,     145,     146,     151,     150
     255,     131,     132,     137,     136,     146,     147,     152,     151
     256,     132,     133,     138,     137,     147,     148,     153,     152
     257,     133,      39,      38,     138,     148,      36,      35,     153
     258,      19,     134,      84,       5,      16,     149,      79,       4
     259,     134,     135,      85,      84,     149,     150,      80,      79
     260,     135,     136,      86,      85,     150,     151,      81,      80
     261,     136,     137,      87,      86,     151,     152,      82,      81
     262,     137,     138,      88,      87,     152,     153,      83,      82
     263,     138,      38,      33,      88,     153,      35,      34,      83
     264,      13,      59,     139,      14,     162,     422,      94,       1
     265,      59,      60,     140,     139,     422,     423,      95,      94
     266,      60,      61,     141,     140,     423,     163,      96,      95
     267,      61,      62,     142,     141,     163,     378,      97,      96
     268,      62,      63,     143,     142,     378,     379,      98,      97
     269,      63,      26,      37,     143,     379,     155,      25,      98
     270,      14,     139,     144,      15,       1,      94,      99,       2
     271,     139,     140,     145,     144,      94,      95,     100,      99
     272,     140,     141,     146,     145,      95,      96,     101,     100
     273,     141,     142,     147,     146,      96,      97,     102,     101
     274,     142,     143,     148,     147,      97,      98,     103,     102
     275,     143,      37,      36,     148,      98,      25,      24,     103
     276,      15,     144,     149,      16,       2,      99,     104,       3
     277,     144,     145,     150,     149,      99,     100,     105,     104
     278,     145,     146,     151,     150,     100,     101,     106,     105
     279,     146,     147,     152,     151,     101,     102,     107,     106
     280,     147,     148,     153,     152,     102,     103,     108,     107
     281,     148,      36,      35,     153,     103,      24,      23,     108
     282,      16,     149,      79,       4,       3,     104,     398,     158
     283,     149,     150,      80,      79,     104,     105,     399,     398
     284,     150,     151,      81,      80,     105,     106,     159,     399
     285,     151,     152,      82,      81,     106,     107,     350,     159
     286,     152,     153,      83,      82,     107,     108,     351,     350
     287,     153,      35,      34,      83,     108,      23,     154,     351
**
********************************** S I D E S E T S **********************************
*ELSET, ELSET=SS1_S1
     139,     142,     145,     148,     151,     154,     157
*ELSET, ELSET=SS1_S2
      28,      29,      30,      31,      33,      41,      64,     162,     164,     170,
     174,     178,     180,     186,     190
*ELSET, ELSET=SS1_S4
     197,     203,     209,     215,     221,     227,     233,     239,     245,     251,
     257,     263,     269,     275,     281,     287
*SURFACE, NAME=SS1
SS1_S1, S1
SS1_S2, S2
SS1_S4, S4
*ELSET, ELSET=SS2_S2
      40
*ELSET, ELSET=SS2_S3
       1,       2,       3,      10,      11,      12,      19,      32,      33,      43,
      48,      65,      66,      67,      68,     131,     132,     133,     134,     172,
     173,     174,     175
*ELSET, ELSET=SS2_S5
      58,      59,      60,     104,     105,     106,     151,     152,     153
*ELSET, ELSET=SS2_S6
     192,     198,     204,     210,     216,     222,     228,     234,     240,     246,
     252,     258,     264,     270,     276,     282
*SURFACE, NAME=SS2
SS2_S2, S2
SS2_S3, S3
SS2_S5, S5
SS2_S6, S6
*ELSET, ELSET=SS3_S5
       7,       8,       9,      16,      17,      18,      21,      22,      23,      25,
      26,      27,      29,      30,      31
*SURFACE, NAME=SS3
SS3_S5, S5
*ELSET, ELSET=SS4_S1
      52,      55,      58,      61
*ELSET, ELSET=SS4_S3
      92,      93,      94,     154,     155,     156,     192,     193,     194,     195,
     196,     197,     216,     217,     218,     219,     220,     221,     240,     241,
     242,     243,     244,     245,     264,     265,     266,     267,     268,     269
*ELSET, ELSET=SS4_S6
       1,       4,       7,      10,      13,      16,      21,      25,      29,      47,
      65,      69,      76,      78,      82,     111,     112,     113,     114,     164,
     165,     166,     167
*SURFACE, NAME=SS4
SS4_S1, S1
SS4_S3, S3
SS4_S6, S6
**
********************************** P R O P E R T I E S ************************
*SOLID SECTION, ELSET=EB1, MATERIAL=Default-Steel
**
*END PART
**
**
**
********************************** E N D   P A R T S **********************************
**
**
********************************** A S S E M B L Y ************************************
**
*ASSEMBLY, NAME=ASSEMBLY1
**
*INSTANCE, NAME=Part-Default_1, PART=Part-Default
*END INSTANCE
**
*END ASSEMBLY
**
**
**
*MATERIAL, NAME = Default-Steel
*ELASTIC, TYPE=ISOTROPIC
2.068000e+05, 2.900000e-01
*DENSITY
7.000000e-06
*CONDUCTIVITY,TYPE=ISO
4.500000e-02
*SPECIFIC HEAT
5.000000e+02
**
**
************************************** H I S T O R Y *************************************
**
*PREPRINT
**
**************************************** S T E P 1 ***************************************
*STEP,INC=100,NAME=Default Set
**
*STATIC
1, 1, 1e-05, 1
**
**
**
**
*END STEP
