*HEADING
cubit(entify/lib/Axisymmetric Indentation/true_mesh_coarse4.inp): 05/12/2024: 14
version: 2023.4
**
********************************** P A R T S **********************************
*PART, NAME=Part-Default
**
********************************** N O D E S **********************************
*NODE, NSET=ALLNODES
       1,    0.000000e+00,    0.000000e+00,    3.500000e+01
       2,    0.000000e+00,    1.283333e+01,    3.500000e+01
       3,    0.000000e+00,    1.166667e+01,    3.500000e+01
       4,    0.000000e+00,    1.050000e+01,    3.500000e+01
       5,    0.000000e+00,    9.333333e+00,    3.500000e+01
       6,    0.000000e+00,    8.166667e+00,    3.500000e+01
       7,    0.000000e+00,    7.000000e+00,    3.500000e+01
       8,    0.000000e+00,    5.833333e+00,    3.500000e+01
       9,    0.000000e+00,    4.666667e+00,    3.500000e+01
      10,    0.000000e+00,    3.500000e+00,    3.500000e+01
      11,    0.000000e+00,    2.333333e+00,    3.500000e+01
      12,    0.000000e+00,    1.166667e+00,    3.500000e+01
      13,    1.166667e+00,    0.000000e+00,    3.500000e+01
      14,    2.333333e+00,    0.000000e+00,    3.500000e+01
      15,    3.500000e+00,    0.000000e+00,    3.500000e+01
      16,    4.666667e+00,    0.000000e+00,    3.500000e+01
      17,    5.833333e+00,    0.000000e+00,    3.500000e+01
      18,    7.000000e+00,    0.000000e+00,    3.500000e+01
      19,    8.166667e+00,    0.000000e+00,    3.500000e+01
      20,    9.333333e+00,    0.000000e+00,    3.500000e+01
      21,    1.050000e+01,    0.000000e+00,    3.500000e+01
      22,    1.166667e+01,    0.000000e+00,    3.500000e+01
      23,    1.283333e+01,    0.000000e+00,    3.500000e+01
      24,    1.283333e+01,    1.166667e+00,    3.500000e+01
      25,    1.283333e+01,    2.333333e+00,    3.500000e+01
      26,    1.283333e+01,    3.500000e+00,    3.500000e+01
      27,    1.283333e+01,    4.666667e+00,    3.500000e+01
      28,    1.283333e+01,    5.833333e+00,    3.500000e+01
      29,    1.283333e+01,    7.000000e+00,    3.500000e+01
      30,    1.283333e+01,    8.166667e+00,    3.500000e+01
      31,    1.283333e+01,    9.333333e+00,    3.500000e+01
      32,    1.283333e+01,    1.050000e+01,    3.500000e+01
      33,    1.283333e+01,    1.166667e+01,    3.500000e+01
      34,    1.283333e+01,    1.283333e+01,    3.500000e+01
      35,    1.166667e+01,    1.166667e+00,    3.500000e+01
      36,    1.166667e+01,    2.333333e+00,    3.500000e+01
      37,    1.166667e+01,    3.500000e+00,    3.500000e+01
      38,    1.166667e+01,    4.666667e+00,    3.500000e+01
      39,    1.166667e+01,    5.833333e+00,    3.500000e+01
      40,    1.166667e+01,    7.000000e+00,    3.500000e+01
      41,    1.166667e+01,    8.166667e+00,    3.500000e+01
      42,    1.166667e+01,    9.333333e+00,    3.500000e+01
      43,    1.166667e+01,    1.050000e+01,    3.500000e+01
      44,    1.166667e+01,    1.166667e+01,    3.500000e+01
      45,    1.166667e+01,    1.283333e+01,    3.500000e+01
      46,    1.050000e+01,    1.166667e+00,    3.500000e+01
      47,    1.050000e+01,    2.333333e+00,    3.500000e+01
      48,    1.050000e+01,    3.500000e+00,    3.500000e+01
      49,    1.050000e+01,    4.666667e+00,    3.500000e+01
      50,    1.050000e+01,    5.833333e+00,    3.500000e+01
      51,    1.050000e+01,    7.000000e+00,    3.500000e+01
      52,    1.050000e+01,    8.166667e+00,    3.500000e+01
      53,    1.050000e+01,    9.333333e+00,    3.500000e+01
      54,    1.050000e+01,    1.050000e+01,    3.500000e+01
      55,    1.050000e+01,    1.166667e+01,    3.500000e+01
      56,    1.050000e+01,    1.283333e+01,    3.500000e+01
      57,    9.333333e+00,    1.166667e+00,    3.500000e+01
      58,    9.333333e+00,    2.333333e+00,    3.500000e+01
      59,    9.333333e+00,    3.500000e+00,    3.500000e+01
      60,    9.333333e+00,    4.666667e+00,    3.500000e+01
      61,    9.333333e+00,    5.833333e+00,    3.500000e+01
      62,    9.333333e+00,    7.000000e+00,    3.500000e+01
      63,    9.333333e+00,    8.166667e+00,    3.500000e+01
      64,    9.333333e+00,    9.333333e+00,    3.500000e+01
      65,    9.333333e+00,    1.050000e+01,    3.500000e+01
      66,    9.333333e+00,    1.166667e+01,    3.500000e+01
      67,    9.333333e+00,    1.283333e+01,    3.500000e+01
      68,    8.166667e+00,    1.166667e+00,    3.500000e+01
      69,    8.166667e+00,    2.333333e+00,    3.500000e+01
      70,    8.166667e+00,    3.500000e+00,    3.500000e+01
      71,    8.166667e+00,    4.666667e+00,    3.500000e+01
      72,    8.166667e+00,    5.833333e+00,    3.500000e+01
      73,    8.166667e+00,    7.000000e+00,    3.500000e+01
      74,    8.166667e+00,    8.166667e+00,    3.500000e+01
      75,    8.166667e+00,    9.333333e+00,    3.500000e+01
      76,    8.166667e+00,    1.050000e+01,    3.500000e+01
      77,    8.166667e+00,    1.166667e+01,    3.500000e+01
      78,    8.166667e+00,    1.283333e+01,    3.500000e+01
      79,    7.000000e+00,    1.166667e+00,    3.500000e+01
      80,    7.000000e+00,    2.333333e+00,    3.500000e+01
      81,    7.000000e+00,    3.500000e+00,    3.500000e+01
      82,    7.000000e+00,    4.666667e+00,    3.500000e+01
      83,    7.000000e+00,    5.833333e+00,    3.500000e+01
      84,    7.000000e+00,    7.000000e+00,    3.500000e+01
      85,    7.000000e+00,    8.166667e+00,    3.500000e+01
      86,    7.000000e+00,    9.333333e+00,    3.500000e+01
      87,    7.000000e+00,    1.050000e+01,    3.500000e+01
      88,    7.000000e+00,    1.166667e+01,    3.500000e+01
      89,    7.000000e+00,    1.283333e+01,    3.500000e+01
      90,    5.833333e+00,    1.166667e+00,    3.500000e+01
      91,    5.833333e+00,    2.333333e+00,    3.500000e+01
      92,    5.833333e+00,    3.500000e+00,    3.500000e+01
      93,    5.833333e+00,    4.666667e+00,    3.500000e+01
      94,    5.833333e+00,    5.833333e+00,    3.500000e+01
      95,    5.833333e+00,    7.000000e+00,    3.500000e+01
      96,    5.833333e+00,    8.166667e+00,    3.500000e+01
      97,    5.833333e+00,    9.333333e+00,    3.500000e+01
      98,    5.833333e+00,    1.050000e+01,    3.500000e+01
      99,    5.833333e+00,    1.166667e+01,    3.500000e+01
     100,    5.833333e+00,    1.283333e+01,    3.500000e+01
     101,    4.666667e+00,    1.166667e+00,    3.500000e+01
     102,    4.666667e+00,    2.333333e+00,    3.500000e+01
     103,    4.666667e+00,    3.500000e+00,    3.500000e+01
     104,    4.666667e+00,    4.666667e+00,    3.500000e+01
     105,    4.666667e+00,    5.833333e+00,    3.500000e+01
     106,    4.666667e+00,    7.000000e+00,    3.500000e+01
     107,    4.666667e+00,    8.166667e+00,    3.500000e+01
     108,    4.666667e+00,    9.333333e+00,    3.500000e+01
     109,    4.666667e+00,    1.050000e+01,    3.500000e+01
     110,    4.666667e+00,    1.166667e+01,    3.500000e+01
     111,    4.666667e+00,    1.283333e+01,    3.500000e+01
     112,    3.500000e+00,    1.166667e+00,    3.500000e+01
     113,    3.500000e+00,    2.333333e+00,    3.500000e+01
     114,    3.500000e+00,    3.500000e+00,    3.500000e+01
     115,    3.500000e+00,    4.666667e+00,    3.500000e+01
     116,    3.500000e+00,    5.833333e+00,    3.500000e+01
     117,    3.500000e+00,    7.000000e+00,    3.500000e+01
     118,    3.500000e+00,    8.166667e+00,    3.500000e+01
     119,    3.500000e+00,    9.333333e+00,    3.500000e+01
     120,    3.500000e+00,    1.050000e+01,    3.500000e+01
     121,    3.500000e+00,    1.166667e+01,    3.500000e+01
     122,    3.500000e+00,    1.283333e+01,    3.500000e+01
     123,    2.333333e+00,    1.166667e+00,    3.500000e+01
     124,    2.333333e+00,    2.333333e+00,    3.500000e+01
     125,    2.333333e+00,    3.500000e+00,    3.500000e+01
     126,    2.333333e+00,    4.666667e+00,    3.500000e+01
     127,    2.333333e+00,    5.833333e+00,    3.500000e+01
     128,    2.333333e+00,    7.000000e+00,    3.500000e+01
     129,    2.333333e+00,    8.166667e+00,    3.500000e+01
     130,    2.333333e+00,    9.333333e+00,    3.500000e+01
     131,    2.333333e+00,    1.050000e+01,    3.500000e+01
     132,    2.333333e+00,    1.166667e+01,    3.500000e+01
     133,    2.333333e+00,    1.283333e+01,    3.500000e+01
     134,    1.166667e+00,    1.166667e+00,    3.500000e+01
     135,    1.166667e+00,    2.333333e+00,    3.500000e+01
     136,    1.166667e+00,    3.500000e+00,    3.500000e+01
     137,    1.166667e+00,    4.666667e+00,    3.500000e+01
     138,    1.166667e+00,    5.833333e+00,    3.500000e+01
     139,    1.166667e+00,    7.000000e+00,    3.500000e+01
     140,    1.166667e+00,    8.166667e+00,    3.500000e+01
     141,    1.166667e+00,    9.333333e+00,    3.500000e+01
     142,    1.166667e+00,    1.050000e+01,    3.500000e+01
     143,    1.166667e+00,    1.166667e+01,    3.500000e+01
     144,    1.166667e+00,    1.283333e+01,    3.500000e+01
     145,    0.000000e+00,    0.000000e+00,    3.383333e+01
     146,    0.000000e+00,    0.000000e+00,    3.266667e+01
     147,    0.000000e+00,    0.000000e+00,    3.150000e+01
     148,    0.000000e+00,    0.000000e+00,    3.033333e+01
     149,    0.000000e+00,    0.000000e+00,    2.916667e+01
     150,    0.000000e+00,    0.000000e+00,    2.800000e+01
     151,    0.000000e+00,    0.000000e+00,    2.683333e+01
     152,    0.000000e+00,    0.000000e+00,    2.566667e+01
     153,    0.000000e+00,    0.000000e+00,    2.450000e+01
     154,    0.000000e+00,    0.000000e+00,    2.333333e+01
     155,    0.000000e+00,    0.000000e+00,    2.216667e+01
     156,    0.000000e+00,    0.000000e+00,    2.100000e+01
     157,    0.000000e+00,    0.000000e+00,    1.983333e+01
     158,    0.000000e+00,    0.000000e+00,    1.866667e+01
     159,    0.000000e+00,    0.000000e+00,    1.750000e+01
     160,    0.000000e+00,    0.000000e+00,    1.633333e+01
     161,    0.000000e+00,    0.000000e+00,    1.516667e+01
     162,    1.166667e+00,    0.000000e+00,    3.383333e+01
     163,    1.166667e+00,    0.000000e+00,    3.266667e+01
     164,    1.166667e+00,    0.000000e+00,    3.150000e+01
     165,    1.166667e+00,    0.000000e+00,    3.033333e+01
     166,    1.166667e+00,    0.000000e+00,    2.916667e+01
     167,    1.166667e+00,    0.000000e+00,    2.800000e+01
     168,    1.166667e+00,    0.000000e+00,    2.683333e+01
     169,    1.166667e+00,    0.000000e+00,    2.566667e+01
     170,    1.166667e+00,    0.000000e+00,    2.450000e+01
     171,    1.166667e+00,    0.000000e+00,    2.333333e+01
     172,    1.166667e+00,    0.000000e+00,    2.216667e+01
     173,    1.166667e+00,    0.000000e+00,    2.100000e+01
     174,    1.166667e+00,    0.000000e+00,    1.983333e+01
     175,    1.166667e+00,    0.000000e+00,    1.866667e+01
     176,    1.166667e+00,    0.000000e+00,    1.750000e+01
     177,    1.166667e+00,    0.000000e+00,    1.633333e+01
     178,    1.166667e+00,    0.000000e+00,    1.516667e+01
     179,    2.333333e+00,    0.000000e+00,    3.383333e+01
     180,    2.333333e+00,    0.000000e+00,    3.266667e+01
     181,    2.333333e+00,    0.000000e+00,    3.150000e+01
     182,    2.333333e+00,    0.000000e+00,    3.033333e+01
     183,    2.333333e+00,    0.000000e+00,    2.916667e+01
     184,    2.333333e+00,    0.000000e+00,    2.800000e+01
     185,    2.333333e+00,    0.000000e+00,    2.683333e+01
     186,    2.333333e+00,    0.000000e+00,    2.566667e+01
     187,    2.333333e+00,    0.000000e+00,    2.450000e+01
     188,    2.333333e+00,    0.000000e+00,    2.333333e+01
     189,    2.333333e+00,    0.000000e+00,    2.216667e+01
     190,    2.333333e+00,    0.000000e+00,    2.100000e+01
     191,    2.333333e+00,    0.000000e+00,    1.983333e+01
     192,    2.333333e+00,    0.000000e+00,    1.866667e+01
     193,    2.333333e+00,    0.000000e+00,    1.750000e+01
     194,    2.333333e+00,    0.000000e+00,    1.633333e+01
     195,    2.333333e+00,    0.000000e+00,    1.516667e+01
     196,    3.500000e+00,    0.000000e+00,    3.383333e+01
     197,    3.500000e+00,    0.000000e+00,    3.266667e+01
     198,    3.500000e+00,    0.000000e+00,    3.150000e+01
     199,    3.500000e+00,    0.000000e+00,    3.033333e+01
     200,    3.500000e+00,    0.000000e+00,    2.916667e+01
     201,    3.500000e+00,    0.000000e+00,    2.800000e+01
     202,    3.500000e+00,    0.000000e+00,    2.683333e+01
     203,    3.500000e+00,    0.000000e+00,    2.566667e+01
     204,    3.500000e+00,    0.000000e+00,    2.450000e+01
     205,    3.500000e+00,    0.000000e+00,    2.333333e+01
     206,    3.500000e+00,    0.000000e+00,    2.216667e+01
     207,    3.500000e+00,    0.000000e+00,    2.100000e+01
     208,    3.500000e+00,    0.000000e+00,    1.983333e+01
     209,    3.500000e+00,    0.000000e+00,    1.866667e+01
     210,    3.500000e+00,    0.000000e+00,    1.750000e+01
     211,    3.500000e+00,    0.000000e+00,    1.633333e+01
     212,    3.500000e+00,    0.000000e+00,    1.516667e+01
     213,    4.666667e+00,    0.000000e+00,    3.383333e+01
     214,    4.666667e+00,    0.000000e+00,    3.266667e+01
     215,    4.666667e+00,    0.000000e+00,    3.150000e+01
     216,    4.666667e+00,    0.000000e+00,    3.033333e+01
     217,    4.666667e+00,    0.000000e+00,    2.916667e+01
     218,    4.666667e+00,    0.000000e+00,    2.800000e+01
     219,    4.666667e+00,    0.000000e+00,    2.683333e+01
     220,    4.666667e+00,    0.000000e+00,    2.566667e+01
     221,    4.666667e+00,    0.000000e+00,    2.450000e+01
     222,    4.666667e+00,    0.000000e+00,    2.333333e+01
     223,    4.666667e+00,    0.000000e+00,    2.216667e+01
     224,    4.666667e+00,    0.000000e+00,    2.100000e+01
     225,    4.666667e+00,    0.000000e+00,    1.983333e+01
     226,    4.666667e+00,    0.000000e+00,    1.866667e+01
     227,    4.666667e+00,    0.000000e+00,    1.750000e+01
     228,    4.666667e+00,    0.000000e+00,    1.633333e+01
     229,    4.666667e+00,    0.000000e+00,    1.516667e+01
     230,    5.833333e+00,    0.000000e+00,    3.383333e+01
     231,    5.833333e+00,    0.000000e+00,    3.266667e+01
     232,    5.833333e+00,    0.000000e+00,    3.150000e+01
     233,    5.833333e+00,    0.000000e+00,    3.033333e+01
     234,    5.833333e+00,    0.000000e+00,    2.916667e+01
     235,    5.833333e+00,    0.000000e+00,    2.800000e+01
     236,    5.833333e+00,    0.000000e+00,    2.683333e+01
     237,    5.833333e+00,    0.000000e+00,    2.566667e+01
     238,    5.833333e+00,    0.000000e+00,    2.450000e+01
     239,    5.833333e+00,    0.000000e+00,    2.333333e+01
     240,    5.833333e+00,    0.000000e+00,    2.216667e+01
     241,    5.833333e+00,    0.000000e+00,    2.100000e+01
     242,    5.833333e+00,    0.000000e+00,    1.983333e+01
     243,    5.833333e+00,    0.000000e+00,    1.866667e+01
     244,    5.833333e+00,    0.000000e+00,    1.750000e+01
     245,    5.833333e+00,    0.000000e+00,    1.633333e+01
     246,    5.833333e+00,    0.000000e+00,    1.516667e+01
     247,    7.000000e+00,    0.000000e+00,    3.383333e+01
     248,    7.000000e+00,    0.000000e+00,    3.266667e+01
     249,    7.000000e+00,    0.000000e+00,    3.150000e+01
     250,    7.000000e+00,    0.000000e+00,    3.033333e+01
     251,    7.000000e+00,    0.000000e+00,    2.916667e+01
     252,    7.000000e+00,    0.000000e+00,    2.800000e+01
     253,    7.000000e+00,    0.000000e+00,    2.683333e+01
     254,    7.000000e+00,    0.000000e+00,    2.566667e+01
     255,    7.000000e+00,    0.000000e+00,    2.450000e+01
     256,    7.000000e+00,    0.000000e+00,    2.333333e+01
     257,    7.000000e+00,    0.000000e+00,    2.216667e+01
     258,    7.000000e+00,    0.000000e+00,    2.100000e+01
     259,    7.000000e+00,    0.000000e+00,    1.983333e+01
     260,    7.000000e+00,    0.000000e+00,    1.866667e+01
     261,    7.000000e+00,    0.000000e+00,    1.750000e+01
     262,    7.000000e+00,    0.000000e+00,    1.633333e+01
     263,    7.000000e+00,    0.000000e+00,    1.516667e+01
     264,    8.166667e+00,    0.000000e+00,    3.383333e+01
     265,    8.166667e+00,    0.000000e+00,    3.266667e+01
     266,    8.166667e+00,    0.000000e+00,    3.150000e+01
     267,    8.166667e+00,    0.000000e+00,    3.033333e+01
     268,    8.166667e+00,    0.000000e+00,    2.916667e+01
     269,    8.166667e+00,    0.000000e+00,    2.800000e+01
     270,    8.166667e+00,    0.000000e+00,    2.683333e+01
     271,    8.166667e+00,    0.000000e+00,    2.566667e+01
     272,    8.166667e+00,    0.000000e+00,    2.450000e+01
     273,    8.166667e+00,    0.000000e+00,    2.333333e+01
     274,    8.166667e+00,    0.000000e+00,    2.216667e+01
     275,    8.166667e+00,    0.000000e+00,    2.100000e+01
     276,    8.166667e+00,    0.000000e+00,    1.983333e+01
     277,    8.166667e+00,    0.000000e+00,    1.866667e+01
     278,    8.166667e+00,    0.000000e+00,    1.750000e+01
     279,    8.166667e+00,    0.000000e+00,    1.633333e+01
     280,    8.166667e+00,    0.000000e+00,    1.516667e+01
     281,    9.333333e+00,    0.000000e+00,    3.383333e+01
     282,    9.333333e+00,    0.000000e+00,    3.266667e+01
     283,    9.333333e+00,    0.000000e+00,    3.150000e+01
     284,    9.333333e+00,    0.000000e+00,    3.033333e+01
     285,    9.333333e+00,    0.000000e+00,    2.916667e+01
     286,    9.333333e+00,    0.000000e+00,    2.800000e+01
     287,    9.333333e+00,    0.000000e+00,    2.683333e+01
     288,    9.333333e+00,    0.000000e+00,    2.566667e+01
     289,    9.333333e+00,    0.000000e+00,    2.450000e+01
     290,    9.333333e+00,    0.000000e+00,    2.333333e+01
     291,    9.333333e+00,    0.000000e+00,    2.216667e+01
     292,    9.333333e+00,    0.000000e+00,    2.100000e+01
     293,    9.333333e+00,    0.000000e+00,    1.983333e+01
     294,    9.333333e+00,    0.000000e+00,    1.866667e+01
     295,    9.333333e+00,    0.000000e+00,    1.750000e+01
     296,    9.333333e+00,    0.000000e+00,    1.633333e+01
     297,    9.333333e+00,    0.000000e+00,    1.516667e+01
     298,    1.050000e+01,    0.000000e+00,    3.383333e+01
     299,    1.050000e+01,    0.000000e+00,    3.266667e+01
     300,    1.050000e+01,    0.000000e+00,    3.150000e+01
     301,    1.050000e+01,    0.000000e+00,    3.033333e+01
     302,    1.050000e+01,    0.000000e+00,    2.916667e+01
     303,    1.050000e+01,    0.000000e+00,    2.800000e+01
     304,    1.050000e+01,    0.000000e+00,    2.683333e+01
     305,    1.050000e+01,    0.000000e+00,    2.566667e+01
     306,    1.050000e+01,    0.000000e+00,    2.450000e+01
     307,    1.050000e+01,    0.000000e+00,    2.333333e+01
     308,    1.050000e+01,    0.000000e+00,    2.216667e+01
     309,    1.050000e+01,    0.000000e+00,    2.100000e+01
     310,    1.050000e+01,    0.000000e+00,    1.983333e+01
     311,    1.050000e+01,    0.000000e+00,    1.866667e+01
     312,    1.050000e+01,    0.000000e+00,    1.750000e+01
     313,    1.050000e+01,    0.000000e+00,    1.633333e+01
     314,    1.050000e+01,    0.000000e+00,    1.516667e+01
     315,    1.166667e+01,    0.000000e+00,    3.383333e+01
     316,    1.166667e+01,    0.000000e+00,    3.266667e+01
     317,    1.166667e+01,    0.000000e+00,    3.150000e+01
     318,    1.166667e+01,    0.000000e+00,    3.033333e+01
     319,    1.166667e+01,    0.000000e+00,    2.916667e+01
     320,    1.166667e+01,    0.000000e+00,    2.800000e+01
     321,    1.166667e+01,    0.000000e+00,    2.683333e+01
     322,    1.166667e+01,    0.000000e+00,    2.566667e+01
     323,    1.166667e+01,    0.000000e+00,    2.450000e+01
     324,    1.166667e+01,    0.000000e+00,    2.333333e+01
     325,    1.166667e+01,    0.000000e+00,    2.216667e+01
     326,    1.166667e+01,    0.000000e+00,    2.100000e+01
     327,    1.166667e+01,    0.000000e+00,    1.983333e+01
     328,    1.166667e+01,    0.000000e+00,    1.866667e+01
     329,    1.166667e+01,    0.000000e+00,    1.750000e+01
     330,    1.166667e+01,    0.000000e+00,    1.633333e+01
     331,    1.166667e+01,    0.000000e+00,    1.516667e+01
     332,    1.283333e+01,    0.000000e+00,    3.383333e+01
     333,    1.283333e+01,    0.000000e+00,    3.266667e+01
     334,    1.283333e+01,    0.000000e+00,    3.150000e+01
     335,    1.283333e+01,    0.000000e+00,    3.033333e+01
     336,    1.283333e+01,    0.000000e+00,    2.916667e+01
     337,    1.283333e+01,    0.000000e+00,    2.800000e+01
     338,    1.283333e+01,    0.000000e+00,    2.683333e+01
     339,    1.283333e+01,    0.000000e+00,    2.566667e+01
     340,    1.283333e+01,    0.000000e+00,    2.450000e+01
     341,    1.283333e+01,    0.000000e+00,    2.333333e+01
     342,    1.283333e+01,    0.000000e+00,    2.216667e+01
     343,    1.283333e+01,    0.000000e+00,    2.100000e+01
     344,    1.283333e+01,    0.000000e+00,    1.983333e+01
     345,    1.283333e+01,    0.000000e+00,    1.866667e+01
     346,    1.283333e+01,    0.000000e+00,    1.750000e+01
     347,    1.283333e+01,    0.000000e+00,    1.633333e+01
     348,    1.283333e+01,    0.000000e+00,    1.516667e+01
     349,    0.000000e+00,    1.283333e+01,    3.383333e+01
     350,    0.000000e+00,    1.283333e+01,    3.266667e+01
     351,    0.000000e+00,    1.283333e+01,    3.150000e+01
     352,    0.000000e+00,    1.283333e+01,    3.033333e+01
     353,    0.000000e+00,    1.283333e+01,    2.916667e+01
     354,    0.000000e+00,    1.283333e+01,    2.800000e+01
     355,    0.000000e+00,    1.283333e+01,    2.683333e+01
     356,    0.000000e+00,    1.283333e+01,    2.566667e+01
     357,    0.000000e+00,    1.283333e+01,    2.450000e+01
     358,    0.000000e+00,    1.283333e+01,    2.333333e+01
     359,    0.000000e+00,    1.283333e+01,    2.216667e+01
     360,    0.000000e+00,    1.283333e+01,    2.100000e+01
     361,    0.000000e+00,    1.283333e+01,    1.983333e+01
     362,    0.000000e+00,    1.283333e+01,    1.866667e+01
     363,    0.000000e+00,    1.283333e+01,    1.750000e+01
     364,    0.000000e+00,    1.283333e+01,    1.633333e+01
     365,    0.000000e+00,    1.283333e+01,    1.516667e+01
     366,    0.000000e+00,    1.166667e+01,    3.383333e+01
     367,    0.000000e+00,    1.166667e+01,    3.266667e+01
     368,    0.000000e+00,    1.166667e+01,    3.150000e+01
     369,    0.000000e+00,    1.166667e+01,    3.033333e+01
     370,    0.000000e+00,    1.166667e+01,    2.916667e+01
     371,    0.000000e+00,    1.166667e+01,    2.800000e+01
     372,    0.000000e+00,    1.166667e+01,    2.683333e+01
     373,    0.000000e+00,    1.166667e+01,    2.566667e+01
     374,    0.000000e+00,    1.166667e+01,    2.450000e+01
     375,    0.000000e+00,    1.166667e+01,    2.333333e+01
     376,    0.000000e+00,    1.166667e+01,    2.216667e+01
     377,    0.000000e+00,    1.166667e+01,    2.100000e+01
     378,    0.000000e+00,    1.166667e+01,    1.983333e+01
     379,    0.000000e+00,    1.166667e+01,    1.866667e+01
     380,    0.000000e+00,    1.166667e+01,    1.750000e+01
     381,    0.000000e+00,    1.166667e+01,    1.633333e+01
     382,    0.000000e+00,    1.166667e+01,    1.516667e+01
     383,    0.000000e+00,    1.050000e+01,    3.383333e+01
     384,    0.000000e+00,    1.050000e+01,    3.266667e+01
     385,    0.000000e+00,    1.050000e+01,    3.150000e+01
     386,    0.000000e+00,    1.050000e+01,    3.033333e+01
     387,    0.000000e+00,    1.050000e+01,    2.916667e+01
     388,    0.000000e+00,    1.050000e+01,    2.800000e+01
     389,    0.000000e+00,    1.050000e+01,    2.683333e+01
     390,    0.000000e+00,    1.050000e+01,    2.566667e+01
     391,    0.000000e+00,    1.050000e+01,    2.450000e+01
     392,    0.000000e+00,    1.050000e+01,    2.333333e+01
     393,    0.000000e+00,    1.050000e+01,    2.216667e+01
     394,    0.000000e+00,    1.050000e+01,    2.100000e+01
     395,    0.000000e+00,    1.050000e+01,    1.983333e+01
     396,    0.000000e+00,    1.050000e+01,    1.866667e+01
     397,    0.000000e+00,    1.050000e+01,    1.750000e+01
     398,    0.000000e+00,    1.050000e+01,    1.633333e+01
     399,    0.000000e+00,    1.050000e+01,    1.516667e+01
     400,    0.000000e+00,    9.333333e+00,    3.383333e+01
     401,    0.000000e+00,    9.333333e+00,    3.266667e+01
     402,    0.000000e+00,    9.333333e+00,    3.150000e+01
     403,    0.000000e+00,    9.333333e+00,    3.033333e+01
     404,    0.000000e+00,    9.333333e+00,    2.916667e+01
     405,    0.000000e+00,    9.333333e+00,    2.800000e+01
     406,    0.000000e+00,    9.333333e+00,    2.683333e+01
     407,    0.000000e+00,    9.333333e+00,    2.566667e+01
     408,    0.000000e+00,    9.333333e+00,    2.450000e+01
     409,    0.000000e+00,    9.333333e+00,    2.333333e+01
     410,    0.000000e+00,    9.333333e+00,    2.216667e+01
     411,    0.000000e+00,    9.333333e+00,    2.100000e+01
     412,    0.000000e+00,    9.333333e+00,    1.983333e+01
     413,    0.000000e+00,    9.333333e+00,    1.866667e+01
     414,    0.000000e+00,    9.333333e+00,    1.750000e+01
     415,    0.000000e+00,    9.333333e+00,    1.633333e+01
     416,    0.000000e+00,    9.333333e+00,    1.516667e+01
     417,    0.000000e+00,    8.166667e+00,    3.383333e+01
     418,    0.000000e+00,    8.166667e+00,    3.266667e+01
     419,    0.000000e+00,    8.166667e+00,    3.150000e+01
     420,    0.000000e+00,    8.166667e+00,    3.033333e+01
     421,    0.000000e+00,    8.166667e+00,    2.916667e+01
     422,    0.000000e+00,    8.166667e+00,    2.800000e+01
     423,    0.000000e+00,    8.166667e+00,    2.683333e+01
     424,    0.000000e+00,    8.166667e+00,    2.566667e+01
     425,    0.000000e+00,    8.166667e+00,    2.450000e+01
     426,    0.000000e+00,    8.166667e+00,    2.333333e+01
     427,    0.000000e+00,    8.166667e+00,    2.216667e+01
     428,    0.000000e+00,    8.166667e+00,    2.100000e+01
     429,    0.000000e+00,    8.166667e+00,    1.983333e+01
     430,    0.000000e+00,    8.166667e+00,    1.866667e+01
     431,    0.000000e+00,    8.166667e+00,    1.750000e+01
     432,    0.000000e+00,    8.166667e+00,    1.633333e+01
     433,    0.000000e+00,    8.166667e+00,    1.516667e+01
     434,    0.000000e+00,    7.000000e+00,    3.383333e+01
     435,    0.000000e+00,    7.000000e+00,    3.266667e+01
     436,    0.000000e+00,    7.000000e+00,    3.150000e+01
     437,    0.000000e+00,    7.000000e+00,    3.033333e+01
     438,    0.000000e+00,    7.000000e+00,    2.916667e+01
     439,    0.000000e+00,    7.000000e+00,    2.800000e+01
     440,    0.000000e+00,    7.000000e+00,    2.683333e+01
     441,    0.000000e+00,    7.000000e+00,    2.566667e+01
     442,    0.000000e+00,    7.000000e+00,    2.450000e+01
     443,    0.000000e+00,    7.000000e+00,    2.333333e+01
     444,    0.000000e+00,    7.000000e+00,    2.216667e+01
     445,    0.000000e+00,    7.000000e+00,    2.100000e+01
     446,    0.000000e+00,    7.000000e+00,    1.983333e+01
     447,    0.000000e+00,    7.000000e+00,    1.866667e+01
     448,    0.000000e+00,    7.000000e+00,    1.750000e+01
     449,    0.000000e+00,    7.000000e+00,    1.633333e+01
     450,    0.000000e+00,    7.000000e+00,    1.516667e+01
     451,    0.000000e+00,    5.833333e+00,    3.383333e+01
     452,    0.000000e+00,    5.833333e+00,    3.266667e+01
     453,    0.000000e+00,    5.833333e+00,    3.150000e+01
     454,    0.000000e+00,    5.833333e+00,    3.033333e+01
     455,    0.000000e+00,    5.833333e+00,    2.916667e+01
     456,    0.000000e+00,    5.833333e+00,    2.800000e+01
     457,    0.000000e+00,    5.833333e+00,    2.683333e+01
     458,    0.000000e+00,    5.833333e+00,    2.566667e+01
     459,    0.000000e+00,    5.833333e+00,    2.450000e+01
     460,    0.000000e+00,    5.833333e+00,    2.333333e+01
     461,    0.000000e+00,    5.833333e+00,    2.216667e+01
     462,    0.000000e+00,    5.833333e+00,    2.100000e+01
     463,    0.000000e+00,    5.833333e+00,    1.983333e+01
     464,    0.000000e+00,    5.833333e+00,    1.866667e+01
     465,    0.000000e+00,    5.833333e+00,    1.750000e+01
     466,    0.000000e+00,    5.833333e+00,    1.633333e+01
     467,    0.000000e+00,    5.833333e+00,    1.516667e+01
     468,    0.000000e+00,    4.666667e+00,    3.383333e+01
     469,    0.000000e+00,    4.666667e+00,    3.266667e+01
     470,    0.000000e+00,    4.666667e+00,    3.150000e+01
     471,    0.000000e+00,    4.666667e+00,    3.033333e+01
     472,    0.000000e+00,    4.666667e+00,    2.916667e+01
     473,    0.000000e+00,    4.666667e+00,    2.800000e+01
     474,    0.000000e+00,    4.666667e+00,    2.683333e+01
     475,    0.000000e+00,    4.666667e+00,    2.566667e+01
     476,    0.000000e+00,    4.666667e+00,    2.450000e+01
     477,    0.000000e+00,    4.666667e+00,    2.333333e+01
     478,    0.000000e+00,    4.666667e+00,    2.216667e+01
     479,    0.000000e+00,    4.666667e+00,    2.100000e+01
     480,    0.000000e+00,    4.666667e+00,    1.983333e+01
     481,    0.000000e+00,    4.666667e+00,    1.866667e+01
     482,    0.000000e+00,    4.666667e+00,    1.750000e+01
     483,    0.000000e+00,    4.666667e+00,    1.633333e+01
     484,    0.000000e+00,    4.666667e+00,    1.516667e+01
     485,    0.000000e+00,    3.500000e+00,    3.383333e+01
     486,    0.000000e+00,    3.500000e+00,    3.266667e+01
     487,    0.000000e+00,    3.500000e+00,    3.150000e+01
     488,    0.000000e+00,    3.500000e+00,    3.033333e+01
     489,    0.000000e+00,    3.500000e+00,    2.916667e+01
     490,    0.000000e+00,    3.500000e+00,    2.800000e+01
     491,    0.000000e+00,    3.500000e+00,    2.683333e+01
     492,    0.000000e+00,    3.500000e+00,    2.566667e+01
     493,    0.000000e+00,    3.500000e+00,    2.450000e+01
     494,    0.000000e+00,    3.500000e+00,    2.333333e+01
     495,    0.000000e+00,    3.500000e+00,    2.216667e+01
     496,    0.000000e+00,    3.500000e+00,    2.100000e+01
     497,    0.000000e+00,    3.500000e+00,    1.983333e+01
     498,    0.000000e+00,    3.500000e+00,    1.866667e+01
     499,    0.000000e+00,    3.500000e+00,    1.750000e+01
     500,    0.000000e+00,    3.500000e+00,    1.633333e+01
     501,    0.000000e+00,    3.500000e+00,    1.516667e+01
     502,    0.000000e+00,    2.333333e+00,    3.383333e+01
     503,    0.000000e+00,    2.333333e+00,    3.266667e+01
     504,    0.000000e+00,    2.333333e+00,    3.150000e+01
     505,    0.000000e+00,    2.333333e+00,    3.033333e+01
     506,    0.000000e+00,    2.333333e+00,    2.916667e+01
     507,    0.000000e+00,    2.333333e+00,    2.800000e+01
     508,    0.000000e+00,    2.333333e+00,    2.683333e+01
     509,    0.000000e+00,    2.333333e+00,    2.566667e+01
     510,    0.000000e+00,    2.333333e+00,    2.450000e+01
     511,    0.000000e+00,    2.333333e+00,    2.333333e+01
     512,    0.000000e+00,    2.333333e+00,    2.216667e+01
     513,    0.000000e+00,    2.333333e+00,    2.100000e+01
     514,    0.000000e+00,    2.333333e+00,    1.983333e+01
     515,    0.000000e+00,    2.333333e+00,    1.866667e+01
     516,    0.000000e+00,    2.333333e+00,    1.750000e+01
     517,    0.000000e+00,    2.333333e+00,    1.633333e+01
     518,    0.000000e+00,    2.333333e+00,    1.516667e+01
     519,    0.000000e+00,    1.166667e+00,    3.383333e+01
     520,    0.000000e+00,    1.166667e+00,    3.266667e+01
     521,    0.000000e+00,    1.166667e+00,    3.150000e+01
     522,    0.000000e+00,    1.166667e+00,    3.033333e+01
     523,    0.000000e+00,    1.166667e+00,    2.916667e+01
     524,    0.000000e+00,    1.166667e+00,    2.800000e+01
     525,    0.000000e+00,    1.166667e+00,    2.683333e+01
     526,    0.000000e+00,    1.166667e+00,    2.566667e+01
     527,    0.000000e+00,    1.166667e+00,    2.450000e+01
     528,    0.000000e+00,    1.166667e+00,    2.333333e+01
     529,    0.000000e+00,    1.166667e+00,    2.216667e+01
     530,    0.000000e+00,    1.166667e+00,    2.100000e+01
     531,    0.000000e+00,    1.166667e+00,    1.983333e+01
     532,    0.000000e+00,    1.166667e+00,    1.866667e+01
     533,    0.000000e+00,    1.166667e+00,    1.750000e+01
     534,    0.000000e+00,    1.166667e+00,    1.633333e+01
     535,    0.000000e+00,    1.166667e+00,    1.516667e+01
     536,    1.166667e+00,    1.166667e+00,    3.383333e+01
     537,    1.166667e+00,    1.166667e+00,    3.266667e+01
     538,    1.166667e+00,    1.166667e+00,    3.150000e+01
     539,    1.166667e+00,    1.166667e+00,    3.033333e+01
     540,    1.166667e+00,    1.166667e+00,    2.916667e+01
     541,    1.166667e+00,    1.166667e+00,    2.800000e+01
     542,    1.166667e+00,    1.166667e+00,    2.683333e+01
     543,    1.166667e+00,    1.166667e+00,    2.566667e+01
     544,    1.166667e+00,    1.166667e+00,    2.450000e+01
     545,    1.166667e+00,    1.166667e+00,    2.333333e+01
     546,    1.166667e+00,    1.166667e+00,    2.216667e+01
     547,    1.166667e+00,    1.166667e+00,    2.100000e+01
     548,    1.166667e+00,    1.166667e+00,    1.983333e+01
     549,    1.166667e+00,    1.166667e+00,    1.866667e+01
     550,    1.166667e+00,    1.166667e+00,    1.750000e+01
     551,    1.166667e+00,    1.166667e+00,    1.633333e+01
     552,    1.166667e+00,    1.166667e+00,    1.516667e+01
     553,    1.166667e+00,    2.333333e+00,    3.383333e+01
     554,    1.166667e+00,    2.333333e+00,    3.266667e+01
     555,    1.166667e+00,    2.333333e+00,    3.150000e+01
     556,    1.166667e+00,    2.333333e+00,    3.033333e+01
     557,    1.166667e+00,    2.333333e+00,    2.916667e+01
     558,    1.166667e+00,    2.333333e+00,    2.800000e+01
     559,    1.166667e+00,    2.333333e+00,    2.683333e+01
     560,    1.166667e+00,    2.333333e+00,    2.566667e+01
     561,    1.166667e+00,    2.333333e+00,    2.450000e+01
     562,    1.166667e+00,    2.333333e+00,    2.333333e+01
     563,    1.166667e+00,    2.333333e+00,    2.216667e+01
     564,    1.166667e+00,    2.333333e+00,    2.100000e+01
     565,    1.166667e+00,    2.333333e+00,    1.983333e+01
     566,    1.166667e+00,    2.333333e+00,    1.866667e+01
     567,    1.166667e+00,    2.333333e+00,    1.750000e+01
     568,    1.166667e+00,    2.333333e+00,    1.633333e+01
     569,    1.166667e+00,    2.333333e+00,    1.516667e+01
     570,    1.166667e+00,    3.500000e+00,    3.383333e+01
     571,    1.166667e+00,    3.500000e+00,    3.266667e+01
     572,    1.166667e+00,    3.500000e+00,    3.150000e+01
     573,    1.166667e+00,    3.500000e+00,    3.033333e+01
     574,    1.166667e+00,    3.500000e+00,    2.916667e+01
     575,    1.166667e+00,    3.500000e+00,    2.800000e+01
     576,    1.166667e+00,    3.500000e+00,    2.683333e+01
     577,    1.166667e+00,    3.500000e+00,    2.566667e+01
     578,    1.166667e+00,    3.500000e+00,    2.450000e+01
     579,    1.166667e+00,    3.500000e+00,    2.333333e+01
     580,    1.166667e+00,    3.500000e+00,    2.216667e+01
     581,    1.166667e+00,    3.500000e+00,    2.100000e+01
     582,    1.166667e+00,    3.500000e+00,    1.983333e+01
     583,    1.166667e+00,    3.500000e+00,    1.866667e+01
     584,    1.166667e+00,    3.500000e+00,    1.750000e+01
     585,    1.166667e+00,    3.500000e+00,    1.633333e+01
     586,    1.166667e+00,    3.500000e+00,    1.516667e+01
     587,    1.166667e+00,    4.666667e+00,    3.383333e+01
     588,    1.166667e+00,    4.666667e+00,    3.266667e+01
     589,    1.166667e+00,    4.666667e+00,    3.150000e+01
     590,    1.166667e+00,    4.666667e+00,    3.033333e+01
     591,    1.166667e+00,    4.666667e+00,    2.916667e+01
     592,    1.166667e+00,    4.666667e+00,    2.800000e+01
     593,    1.166667e+00,    4.666667e+00,    2.683333e+01
     594,    1.166667e+00,    4.666667e+00,    2.566667e+01
     595,    1.166667e+00,    4.666667e+00,    2.450000e+01
     596,    1.166667e+00,    4.666667e+00,    2.333333e+01
     597,    1.166667e+00,    4.666667e+00,    2.216667e+01
     598,    1.166667e+00,    4.666667e+00,    2.100000e+01
     599,    1.166667e+00,    4.666667e+00,    1.983333e+01
     600,    1.166667e+00,    4.666667e+00,    1.866667e+01
     601,    1.166667e+00,    4.666667e+00,    1.750000e+01
     602,    1.166667e+00,    4.666667e+00,    1.633333e+01
     603,    1.166667e+00,    4.666667e+00,    1.516667e+01
     604,    1.166667e+00,    5.833333e+00,    3.383333e+01
     605,    1.166667e+00,    5.833333e+00,    3.266667e+01
     606,    1.166667e+00,    5.833333e+00,    3.150000e+01
     607,    1.166667e+00,    5.833333e+00,    3.033333e+01
     608,    1.166667e+00,    5.833333e+00,    2.916667e+01
     609,    1.166667e+00,    5.833333e+00,    2.800000e+01
     610,    1.166667e+00,    5.833333e+00,    2.683333e+01
     611,    1.166667e+00,    5.833333e+00,    2.566667e+01
     612,    1.166667e+00,    5.833333e+00,    2.450000e+01
     613,    1.166667e+00,    5.833333e+00,    2.333333e+01
     614,    1.166667e+00,    5.833333e+00,    2.216667e+01
     615,    1.166667e+00,    5.833333e+00,    2.100000e+01
     616,    1.166667e+00,    5.833333e+00,    1.983333e+01
     617,    1.166667e+00,    5.833333e+00,    1.866667e+01
     618,    1.166667e+00,    5.833333e+00,    1.750000e+01
     619,    1.166667e+00,    5.833333e+00,    1.633333e+01
     620,    1.166667e+00,    5.833333e+00,    1.516667e+01
     621,    1.166667e+00,    7.000000e+00,    3.383333e+01
     622,    1.166667e+00,    7.000000e+00,    3.266667e+01
     623,    1.166667e+00,    7.000000e+00,    3.150000e+01
     624,    1.166667e+00,    7.000000e+00,    3.033333e+01
     625,    1.166667e+00,    7.000000e+00,    2.916667e+01
     626,    1.166667e+00,    7.000000e+00,    2.800000e+01
     627,    1.166667e+00,    7.000000e+00,    2.683333e+01
     628,    1.166667e+00,    7.000000e+00,    2.566667e+01
     629,    1.166667e+00,    7.000000e+00,    2.450000e+01
     630,    1.166667e+00,    7.000000e+00,    2.333333e+01
     631,    1.166667e+00,    7.000000e+00,    2.216667e+01
     632,    1.166667e+00,    7.000000e+00,    2.100000e+01
     633,    1.166667e+00,    7.000000e+00,    1.983333e+01
     634,    1.166667e+00,    7.000000e+00,    1.866667e+01
     635,    1.166667e+00,    7.000000e+00,    1.750000e+01
     636,    1.166667e+00,    7.000000e+00,    1.633333e+01
     637,    1.166667e+00,    7.000000e+00,    1.516667e+01
     638,    1.166667e+00,    8.166667e+00,    3.383333e+01
     639,    1.166667e+00,    8.166667e+00,    3.266667e+01
     640,    1.166667e+00,    8.166667e+00,    3.150000e+01
     641,    1.166667e+00,    8.166667e+00,    3.033333e+01
     642,    1.166667e+00,    8.166667e+00,    2.916667e+01
     643,    1.166667e+00,    8.166667e+00,    2.800000e+01
     644,    1.166667e+00,    8.166667e+00,    2.683333e+01
     645,    1.166667e+00,    8.166667e+00,    2.566667e+01
     646,    1.166667e+00,    8.166667e+00,    2.450000e+01
     647,    1.166667e+00,    8.166667e+00,    2.333333e+01
     648,    1.166667e+00,    8.166667e+00,    2.216667e+01
     649,    1.166667e+00,    8.166667e+00,    2.100000e+01
     650,    1.166667e+00,    8.166667e+00,    1.983333e+01
     651,    1.166667e+00,    8.166667e+00,    1.866667e+01
     652,    1.166667e+00,    8.166667e+00,    1.750000e+01
     653,    1.166667e+00,    8.166667e+00,    1.633333e+01
     654,    1.166667e+00,    8.166667e+00,    1.516667e+01
     655,    1.166667e+00,    9.333333e+00,    3.383333e+01
     656,    1.166667e+00,    9.333333e+00,    3.266667e+01
     657,    1.166667e+00,    9.333333e+00,    3.150000e+01
     658,    1.166667e+00,    9.333333e+00,    3.033333e+01
     659,    1.166667e+00,    9.333333e+00,    2.916667e+01
     660,    1.166667e+00,    9.333333e+00,    2.800000e+01
     661,    1.166667e+00,    9.333333e+00,    2.683333e+01
     662,    1.166667e+00,    9.333333e+00,    2.566667e+01
     663,    1.166667e+00,    9.333333e+00,    2.450000e+01
     664,    1.166667e+00,    9.333333e+00,    2.333333e+01
     665,    1.166667e+00,    9.333333e+00,    2.216667e+01
     666,    1.166667e+00,    9.333333e+00,    2.100000e+01
     667,    1.166667e+00,    9.333333e+00,    1.983333e+01
     668,    1.166667e+00,    9.333333e+00,    1.866667e+01
     669,    1.166667e+00,    9.333333e+00,    1.750000e+01
     670,    1.166667e+00,    9.333333e+00,    1.633333e+01
     671,    1.166667e+00,    9.333333e+00,    1.516667e+01
     672,    1.166667e+00,    1.050000e+01,    3.383333e+01
     673,    1.166667e+00,    1.050000e+01,    3.266667e+01
     674,    1.166667e+00,    1.050000e+01,    3.150000e+01
     675,    1.166667e+00,    1.050000e+01,    3.033333e+01
     676,    1.166667e+00,    1.050000e+01,    2.916667e+01
     677,    1.166667e+00,    1.050000e+01,    2.800000e+01
     678,    1.166667e+00,    1.050000e+01,    2.683333e+01
     679,    1.166667e+00,    1.050000e+01,    2.566667e+01
     680,    1.166667e+00,    1.050000e+01,    2.450000e+01
     681,    1.166667e+00,    1.050000e+01,    2.333333e+01
     682,    1.166667e+00,    1.050000e+01,    2.216667e+01
     683,    1.166667e+00,    1.050000e+01,    2.100000e+01
     684,    1.166667e+00,    1.050000e+01,    1.983333e+01
     685,    1.166667e+00,    1.050000e+01,    1.866667e+01
     686,    1.166667e+00,    1.050000e+01,    1.750000e+01
     687,    1.166667e+00,    1.050000e+01,    1.633333e+01
     688,    1.166667e+00,    1.050000e+01,    1.516667e+01
     689,    1.166667e+00,    1.166667e+01,    3.383333e+01
     690,    1.166667e+00,    1.166667e+01,    3.266667e+01
     691,    1.166667e+00,    1.166667e+01,    3.150000e+01
     692,    1.166667e+00,    1.166667e+01,    3.033333e+01
     693,    1.166667e+00,    1.166667e+01,    2.916667e+01
     694,    1.166667e+00,    1.166667e+01,    2.800000e+01
     695,    1.166667e+00,    1.166667e+01,    2.683333e+01
     696,    1.166667e+00,    1.166667e+01,    2.566667e+01
     697,    1.166667e+00,    1.166667e+01,    2.450000e+01
     698,    1.166667e+00,    1.166667e+01,    2.333333e+01
     699,    1.166667e+00,    1.166667e+01,    2.216667e+01
     700,    1.166667e+00,    1.166667e+01,    2.100000e+01
     701,    1.166667e+00,    1.166667e+01,    1.983333e+01
     702,    1.166667e+00,    1.166667e+01,    1.866667e+01
     703,    1.166667e+00,    1.166667e+01,    1.750000e+01
     704,    1.166667e+00,    1.166667e+01,    1.633333e+01
     705,    1.166667e+00,    1.166667e+01,    1.516667e+01
     706,    1.166667e+00,    1.283333e+01,    3.383333e+01
     707,    1.166667e+00,    1.283333e+01,    3.266667e+01
     708,    1.166667e+00,    1.283333e+01,    3.150000e+01
     709,    1.166667e+00,    1.283333e+01,    3.033333e+01
     710,    1.166667e+00,    1.283333e+01,    2.916667e+01
     711,    1.166667e+00,    1.283333e+01,    2.800000e+01
     712,    1.166667e+00,    1.283333e+01,    2.683333e+01
     713,    1.166667e+00,    1.283333e+01,    2.566667e+01
     714,    1.166667e+00,    1.283333e+01,    2.450000e+01
     715,    1.166667e+00,    1.283333e+01,    2.333333e+01
     716,    1.166667e+00,    1.283333e+01,    2.216667e+01
     717,    1.166667e+00,    1.283333e+01,    2.100000e+01
     718,    1.166667e+00,    1.283333e+01,    1.983333e+01
     719,    1.166667e+00,    1.283333e+01,    1.866667e+01
     720,    1.166667e+00,    1.283333e+01,    1.750000e+01
     721,    1.166667e+00,    1.283333e+01,    1.633333e+01
     722,    1.166667e+00,    1.283333e+01,    1.516667e+01
     723,    2.333333e+00,    1.166667e+00,    3.383333e+01
     724,    2.333333e+00,    1.166667e+00,    3.266667e+01
     725,    2.333333e+00,    1.166667e+00,    3.150000e+01
     726,    2.333333e+00,    1.166667e+00,    3.033333e+01
     727,    2.333333e+00,    1.166667e+00,    2.916667e+01
     728,    2.333333e+00,    1.166667e+00,    2.800000e+01
     729,    2.333333e+00,    1.166667e+00,    2.683333e+01
     730,    2.333333e+00,    1.166667e+00,    2.566667e+01
     731,    2.333333e+00,    1.166667e+00,    2.450000e+01
     732,    2.333333e+00,    1.166667e+00,    2.333333e+01
     733,    2.333333e+00,    1.166667e+00,    2.216667e+01
     734,    2.333333e+00,    1.166667e+00,    2.100000e+01
     735,    2.333333e+00,    1.166667e+00,    1.983333e+01
     736,    2.333333e+00,    1.166667e+00,    1.866667e+01
     737,    2.333333e+00,    1.166667e+00,    1.750000e+01
     738,    2.333333e+00,    1.166667e+00,    1.633333e+01
     739,    2.333333e+00,    1.166667e+00,    1.516667e+01
     740,    2.333333e+00,    2.333333e+00,    3.383333e+01
     741,    2.333333e+00,    2.333333e+00,    3.266667e+01
     742,    2.333333e+00,    2.333333e+00,    3.150000e+01
     743,    2.333333e+00,    2.333333e+00,    3.033333e+01
     744,    2.333333e+00,    2.333333e+00,    2.916667e+01
     745,    2.333333e+00,    2.333333e+00,    2.800000e+01
     746,    2.333333e+00,    2.333333e+00,    2.683333e+01
     747,    2.333333e+00,    2.333333e+00,    2.566667e+01
     748,    2.333333e+00,    2.333333e+00,    2.450000e+01
     749,    2.333333e+00,    2.333333e+00,    2.333333e+01
     750,    2.333333e+00,    2.333333e+00,    2.216667e+01
     751,    2.333333e+00,    2.333333e+00,    2.100000e+01
     752,    2.333333e+00,    2.333333e+00,    1.983333e+01
     753,    2.333333e+00,    2.333333e+00,    1.866667e+01
     754,    2.333333e+00,    2.333333e+00,    1.750000e+01
     755,    2.333333e+00,    2.333333e+00,    1.633333e+01
     756,    2.333333e+00,    2.333333e+00,    1.516667e+01
     757,    2.333333e+00,    3.500000e+00,    3.383333e+01
     758,    2.333333e+00,    3.500000e+00,    3.266667e+01
     759,    2.333333e+00,    3.500000e+00,    3.150000e+01
     760,    2.333333e+00,    3.500000e+00,    3.033333e+01
     761,    2.333333e+00,    3.500000e+00,    2.916667e+01
     762,    2.333333e+00,    3.500000e+00,    2.800000e+01
     763,    2.333333e+00,    3.500000e+00,    2.683333e+01
     764,    2.333333e+00,    3.500000e+00,    2.566667e+01
     765,    2.333333e+00,    3.500000e+00,    2.450000e+01
     766,    2.333333e+00,    3.500000e+00,    2.333333e+01
     767,    2.333333e+00,    3.500000e+00,    2.216667e+01
     768,    2.333333e+00,    3.500000e+00,    2.100000e+01
     769,    2.333333e+00,    3.500000e+00,    1.983333e+01
     770,    2.333333e+00,    3.500000e+00,    1.866667e+01
     771,    2.333333e+00,    3.500000e+00,    1.750000e+01
     772,    2.333333e+00,    3.500000e+00,    1.633333e+01
     773,    2.333333e+00,    3.500000e+00,    1.516667e+01
     774,    2.333333e+00,    4.666667e+00,    3.383333e+01
     775,    2.333333e+00,    4.666667e+00,    3.266667e+01
     776,    2.333333e+00,    4.666667e+00,    3.150000e+01
     777,    2.333333e+00,    4.666667e+00,    3.033333e+01
     778,    2.333333e+00,    4.666667e+00,    2.916667e+01
     779,    2.333333e+00,    4.666667e+00,    2.800000e+01
     780,    2.333333e+00,    4.666667e+00,    2.683333e+01
     781,    2.333333e+00,    4.666667e+00,    2.566667e+01
     782,    2.333333e+00,    4.666667e+00,    2.450000e+01
     783,    2.333333e+00,    4.666667e+00,    2.333333e+01
     784,    2.333333e+00,    4.666667e+00,    2.216667e+01
     785,    2.333333e+00,    4.666667e+00,    2.100000e+01
     786,    2.333333e+00,    4.666667e+00,    1.983333e+01
     787,    2.333333e+00,    4.666667e+00,    1.866667e+01
     788,    2.333333e+00,    4.666667e+00,    1.750000e+01
     789,    2.333333e+00,    4.666667e+00,    1.633333e+01
     790,    2.333333e+00,    4.666667e+00,    1.516667e+01
     791,    2.333333e+00,    5.833333e+00,    3.383333e+01
     792,    2.333333e+00,    5.833333e+00,    3.266667e+01
     793,    2.333333e+00,    5.833333e+00,    3.150000e+01
     794,    2.333333e+00,    5.833333e+00,    3.033333e+01
     795,    2.333333e+00,    5.833333e+00,    2.916667e+01
     796,    2.333333e+00,    5.833333e+00,    2.800000e+01
     797,    2.333333e+00,    5.833333e+00,    2.683333e+01
     798,    2.333333e+00,    5.833333e+00,    2.566667e+01
     799,    2.333333e+00,    5.833333e+00,    2.450000e+01
     800,    2.333333e+00,    5.833333e+00,    2.333333e+01
     801,    2.333333e+00,    5.833333e+00,    2.216667e+01
     802,    2.333333e+00,    5.833333e+00,    2.100000e+01
     803,    2.333333e+00,    5.833333e+00,    1.983333e+01
     804,    2.333333e+00,    5.833333e+00,    1.866667e+01
     805,    2.333333e+00,    5.833333e+00,    1.750000e+01
     806,    2.333333e+00,    5.833333e+00,    1.633333e+01
     807,    2.333333e+00,    5.833333e+00,    1.516667e+01
     808,    2.333333e+00,    7.000000e+00,    3.383333e+01
     809,    2.333333e+00,    7.000000e+00,    3.266667e+01
     810,    2.333333e+00,    7.000000e+00,    3.150000e+01
     811,    2.333333e+00,    7.000000e+00,    3.033333e+01
     812,    2.333333e+00,    7.000000e+00,    2.916667e+01
     813,    2.333333e+00,    7.000000e+00,    2.800000e+01
     814,    2.333333e+00,    7.000000e+00,    2.683333e+01
     815,    2.333333e+00,    7.000000e+00,    2.566667e+01
     816,    2.333333e+00,    7.000000e+00,    2.450000e+01
     817,    2.333333e+00,    7.000000e+00,    2.333333e+01
     818,    2.333333e+00,    7.000000e+00,    2.216667e+01
     819,    2.333333e+00,    7.000000e+00,    2.100000e+01
     820,    2.333333e+00,    7.000000e+00,    1.983333e+01
     821,    2.333333e+00,    7.000000e+00,    1.866667e+01
     822,    2.333333e+00,    7.000000e+00,    1.750000e+01
     823,    2.333333e+00,    7.000000e+00,    1.633333e+01
     824,    2.333333e+00,    7.000000e+00,    1.516667e+01
     825,    2.333333e+00,    8.166667e+00,    3.383333e+01
     826,    2.333333e+00,    8.166667e+00,    3.266667e+01
     827,    2.333333e+00,    8.166667e+00,    3.150000e+01
     828,    2.333333e+00,    8.166667e+00,    3.033333e+01
     829,    2.333333e+00,    8.166667e+00,    2.916667e+01
     830,    2.333333e+00,    8.166667e+00,    2.800000e+01
     831,    2.333333e+00,    8.166667e+00,    2.683333e+01
     832,    2.333333e+00,    8.166667e+00,    2.566667e+01
     833,    2.333333e+00,    8.166667e+00,    2.450000e+01
     834,    2.333333e+00,    8.166667e+00,    2.333333e+01
     835,    2.333333e+00,    8.166667e+00,    2.216667e+01
     836,    2.333333e+00,    8.166667e+00,    2.100000e+01
     837,    2.333333e+00,    8.166667e+00,    1.983333e+01
     838,    2.333333e+00,    8.166667e+00,    1.866667e+01
     839,    2.333333e+00,    8.166667e+00,    1.750000e+01
     840,    2.333333e+00,    8.166667e+00,    1.633333e+01
     841,    2.333333e+00,    8.166667e+00,    1.516667e+01
     842,    2.333333e+00,    9.333333e+00,    3.383333e+01
     843,    2.333333e+00,    9.333333e+00,    3.266667e+01
     844,    2.333333e+00,    9.333333e+00,    3.150000e+01
     845,    2.333333e+00,    9.333333e+00,    3.033333e+01
     846,    2.333333e+00,    9.333333e+00,    2.916667e+01
     847,    2.333333e+00,    9.333333e+00,    2.800000e+01
     848,    2.333333e+00,    9.333333e+00,    2.683333e+01
     849,    2.333333e+00,    9.333333e+00,    2.566667e+01
     850,    2.333333e+00,    9.333333e+00,    2.450000e+01
     851,    2.333333e+00,    9.333333e+00,    2.333333e+01
     852,    2.333333e+00,    9.333333e+00,    2.216667e+01
     853,    2.333333e+00,    9.333333e+00,    2.100000e+01
     854,    2.333333e+00,    9.333333e+00,    1.983333e+01
     855,    2.333333e+00,    9.333333e+00,    1.866667e+01
     856,    2.333333e+00,    9.333333e+00,    1.750000e+01
     857,    2.333333e+00,    9.333333e+00,    1.633333e+01
     858,    2.333333e+00,    9.333333e+00,    1.516667e+01
     859,    2.333333e+00,    1.050000e+01,    3.383333e+01
     860,    2.333333e+00,    1.050000e+01,    3.266667e+01
     861,    2.333333e+00,    1.050000e+01,    3.150000e+01
     862,    2.333333e+00,    1.050000e+01,    3.033333e+01
     863,    2.333333e+00,    1.050000e+01,    2.916667e+01
     864,    2.333333e+00,    1.050000e+01,    2.800000e+01
     865,    2.333333e+00,    1.050000e+01,    2.683333e+01
     866,    2.333333e+00,    1.050000e+01,    2.566667e+01
     867,    2.333333e+00,    1.050000e+01,    2.450000e+01
     868,    2.333333e+00,    1.050000e+01,    2.333333e+01
     869,    2.333333e+00,    1.050000e+01,    2.216667e+01
     870,    2.333333e+00,    1.050000e+01,    2.100000e+01
     871,    2.333333e+00,    1.050000e+01,    1.983333e+01
     872,    2.333333e+00,    1.050000e+01,    1.866667e+01
     873,    2.333333e+00,    1.050000e+01,    1.750000e+01
     874,    2.333333e+00,    1.050000e+01,    1.633333e+01
     875,    2.333333e+00,    1.050000e+01,    1.516667e+01
     876,    2.333333e+00,    1.166667e+01,    3.383333e+01
     877,    2.333333e+00,    1.166667e+01,    3.266667e+01
     878,    2.333333e+00,    1.166667e+01,    3.150000e+01
     879,    2.333333e+00,    1.166667e+01,    3.033333e+01
     880,    2.333333e+00,    1.166667e+01,    2.916667e+01
     881,    2.333333e+00,    1.166667e+01,    2.800000e+01
     882,    2.333333e+00,    1.166667e+01,    2.683333e+01
     883,    2.333333e+00,    1.166667e+01,    2.566667e+01
     884,    2.333333e+00,    1.166667e+01,    2.450000e+01
     885,    2.333333e+00,    1.166667e+01,    2.333333e+01
     886,    2.333333e+00,    1.166667e+01,    2.216667e+01
     887,    2.333333e+00,    1.166667e+01,    2.100000e+01
     888,    2.333333e+00,    1.166667e+01,    1.983333e+01
     889,    2.333333e+00,    1.166667e+01,    1.866667e+01
     890,    2.333333e+00,    1.166667e+01,    1.750000e+01
     891,    2.333333e+00,    1.166667e+01,    1.633333e+01
     892,    2.333333e+00,    1.166667e+01,    1.516667e+01
     893,    2.333333e+00,    1.283333e+01,    3.383333e+01
     894,    2.333333e+00,    1.283333e+01,    3.266667e+01
     895,    2.333333e+00,    1.283333e+01,    3.150000e+01
     896,    2.333333e+00,    1.283333e+01,    3.033333e+01
     897,    2.333333e+00,    1.283333e+01,    2.916667e+01
     898,    2.333333e+00,    1.283333e+01,    2.800000e+01
     899,    2.333333e+00,    1.283333e+01,    2.683333e+01
     900,    2.333333e+00,    1.283333e+01,    2.566667e+01
     901,    2.333333e+00,    1.283333e+01,    2.450000e+01
     902,    2.333333e+00,    1.283333e+01,    2.333333e+01
     903,    2.333333e+00,    1.283333e+01,    2.216667e+01
     904,    2.333333e+00,    1.283333e+01,    2.100000e+01
     905,    2.333333e+00,    1.283333e+01,    1.983333e+01
     906,    2.333333e+00,    1.283333e+01,    1.866667e+01
     907,    2.333333e+00,    1.283333e+01,    1.750000e+01
     908,    2.333333e+00,    1.283333e+01,    1.633333e+01
     909,    2.333333e+00,    1.283333e+01,    1.516667e+01
     910,    3.500000e+00,    1.166667e+00,    3.383333e+01
     911,    3.500000e+00,    1.166667e+00,    3.266667e+01
     912,    3.500000e+00,    1.166667e+00,    3.150000e+01
     913,    3.500000e+00,    1.166667e+00,    3.033333e+01
     914,    3.500000e+00,    1.166667e+00,    2.916667e+01
     915,    3.500000e+00,    1.166667e+00,    2.800000e+01
     916,    3.500000e+00,    1.166667e+00,    2.683333e+01
     917,    3.500000e+00,    1.166667e+00,    2.566667e+01
     918,    3.500000e+00,    1.166667e+00,    2.450000e+01
     919,    3.500000e+00,    1.166667e+00,    2.333333e+01
     920,    3.500000e+00,    1.166667e+00,    2.216667e+01
     921,    3.500000e+00,    1.166667e+00,    2.100000e+01
     922,    3.500000e+00,    1.166667e+00,    1.983333e+01
     923,    3.500000e+00,    1.166667e+00,    1.866667e+01
     924,    3.500000e+00,    1.166667e+00,    1.750000e+01
     925,    3.500000e+00,    1.166667e+00,    1.633333e+01
     926,    3.500000e+00,    1.166667e+00,    1.516667e+01
     927,    3.500000e+00,    2.333333e+00,    3.383333e+01
     928,    3.500000e+00,    2.333333e+00,    3.266667e+01
     929,    3.500000e+00,    2.333333e+00,    3.150000e+01
     930,    3.500000e+00,    2.333333e+00,    3.033333e+01
     931,    3.500000e+00,    2.333333e+00,    2.916667e+01
     932,    3.500000e+00,    2.333333e+00,    2.800000e+01
     933,    3.500000e+00,    2.333333e+00,    2.683333e+01
     934,    3.500000e+00,    2.333333e+00,    2.566667e+01
     935,    3.500000e+00,    2.333333e+00,    2.450000e+01
     936,    3.500000e+00,    2.333333e+00,    2.333333e+01
     937,    3.500000e+00,    2.333333e+00,    2.216667e+01
     938,    3.500000e+00,    2.333333e+00,    2.100000e+01
     939,    3.500000e+00,    2.333333e+00,    1.983333e+01
     940,    3.500000e+00,    2.333333e+00,    1.866667e+01
     941,    3.500000e+00,    2.333333e+00,    1.750000e+01
     942,    3.500000e+00,    2.333333e+00,    1.633333e+01
     943,    3.500000e+00,    2.333333e+00,    1.516667e+01
     944,    3.500000e+00,    3.500000e+00,    3.383333e+01
     945,    3.500000e+00,    3.500000e+00,    3.266667e+01
     946,    3.500000e+00,    3.500000e+00,    3.150000e+01
     947,    3.500000e+00,    3.500000e+00,    3.033333e+01
     948,    3.500000e+00,    3.500000e+00,    2.916667e+01
     949,    3.500000e+00,    3.500000e+00,    2.800000e+01
     950,    3.500000e+00,    3.500000e+00,    2.683333e+01
     951,    3.500000e+00,    3.500000e+00,    2.566667e+01
     952,    3.500000e+00,    3.500000e+00,    2.450000e+01
     953,    3.500000e+00,    3.500000e+00,    2.333333e+01
     954,    3.500000e+00,    3.500000e+00,    2.216667e+01
     955,    3.500000e+00,    3.500000e+00,    2.100000e+01
     956,    3.500000e+00,    3.500000e+00,    1.983333e+01
     957,    3.500000e+00,    3.500000e+00,    1.866667e+01
     958,    3.500000e+00,    3.500000e+00,    1.750000e+01
     959,    3.500000e+00,    3.500000e+00,    1.633333e+01
     960,    3.500000e+00,    3.500000e+00,    1.516667e+01
     961,    3.500000e+00,    4.666667e+00,    3.383333e+01
     962,    3.500000e+00,    4.666667e+00,    3.266667e+01
     963,    3.500000e+00,    4.666667e+00,    3.150000e+01
     964,    3.500000e+00,    4.666667e+00,    3.033333e+01
     965,    3.500000e+00,    4.666667e+00,    2.916667e+01
     966,    3.500000e+00,    4.666667e+00,    2.800000e+01
     967,    3.500000e+00,    4.666667e+00,    2.683333e+01
     968,    3.500000e+00,    4.666667e+00,    2.566667e+01
     969,    3.500000e+00,    4.666667e+00,    2.450000e+01
     970,    3.500000e+00,    4.666667e+00,    2.333333e+01
     971,    3.500000e+00,    4.666667e+00,    2.216667e+01
     972,    3.500000e+00,    4.666667e+00,    2.100000e+01
     973,    3.500000e+00,    4.666667e+00,    1.983333e+01
     974,    3.500000e+00,    4.666667e+00,    1.866667e+01
     975,    3.500000e+00,    4.666667e+00,    1.750000e+01
     976,    3.500000e+00,    4.666667e+00,    1.633333e+01
     977,    3.500000e+00,    4.666667e+00,    1.516667e+01
     978,    3.500000e+00,    5.833333e+00,    3.383333e+01
     979,    3.500000e+00,    5.833333e+00,    3.266667e+01
     980,    3.500000e+00,    5.833333e+00,    3.150000e+01
     981,    3.500000e+00,    5.833333e+00,    3.033333e+01
     982,    3.500000e+00,    5.833333e+00,    2.916667e+01
     983,    3.500000e+00,    5.833333e+00,    2.800000e+01
     984,    3.500000e+00,    5.833333e+00,    2.683333e+01
     985,    3.500000e+00,    5.833333e+00,    2.566667e+01
     986,    3.500000e+00,    5.833333e+00,    2.450000e+01
     987,    3.500000e+00,    5.833333e+00,    2.333333e+01
     988,    3.500000e+00,    5.833333e+00,    2.216667e+01
     989,    3.500000e+00,    5.833333e+00,    2.100000e+01
     990,    3.500000e+00,    5.833333e+00,    1.983333e+01
     991,    3.500000e+00,    5.833333e+00,    1.866667e+01
     992,    3.500000e+00,    5.833333e+00,    1.750000e+01
     993,    3.500000e+00,    5.833333e+00,    1.633333e+01
     994,    3.500000e+00,    5.833333e+00,    1.516667e+01
     995,    3.500000e+00,    7.000000e+00,    3.383333e+01
     996,    3.500000e+00,    7.000000e+00,    3.266667e+01
     997,    3.500000e+00,    7.000000e+00,    3.150000e+01
     998,    3.500000e+00,    7.000000e+00,    3.033333e+01
     999,    3.500000e+00,    7.000000e+00,    2.916667e+01
    1000,    3.500000e+00,    7.000000e+00,    2.800000e+01
    1001,    3.500000e+00,    7.000000e+00,    2.683333e+01
    1002,    3.500000e+00,    7.000000e+00,    2.566667e+01
    1003,    3.500000e+00,    7.000000e+00,    2.450000e+01
    1004,    3.500000e+00,    7.000000e+00,    2.333333e+01
    1005,    3.500000e+00,    7.000000e+00,    2.216667e+01
    1006,    3.500000e+00,    7.000000e+00,    2.100000e+01
    1007,    3.500000e+00,    7.000000e+00,    1.983333e+01
    1008,    3.500000e+00,    7.000000e+00,    1.866667e+01
    1009,    3.500000e+00,    7.000000e+00,    1.750000e+01
    1010,    3.500000e+00,    7.000000e+00,    1.633333e+01
    1011,    3.500000e+00,    7.000000e+00,    1.516667e+01
    1012,    3.500000e+00,    8.166667e+00,    3.383333e+01
    1013,    3.500000e+00,    8.166667e+00,    3.266667e+01
    1014,    3.500000e+00,    8.166667e+00,    3.150000e+01
    1015,    3.500000e+00,    8.166667e+00,    3.033333e+01
    1016,    3.500000e+00,    8.166667e+00,    2.916667e+01
    1017,    3.500000e+00,    8.166667e+00,    2.800000e+01
    1018,    3.500000e+00,    8.166667e+00,    2.683333e+01
    1019,    3.500000e+00,    8.166667e+00,    2.566667e+01
    1020,    3.500000e+00,    8.166667e+00,    2.450000e+01
    1021,    3.500000e+00,    8.166667e+00,    2.333333e+01
    1022,    3.500000e+00,    8.166667e+00,    2.216667e+01
    1023,    3.500000e+00,    8.166667e+00,    2.100000e+01
    1024,    3.500000e+00,    8.166667e+00,    1.983333e+01
    1025,    3.500000e+00,    8.166667e+00,    1.866667e+01
    1026,    3.500000e+00,    8.166667e+00,    1.750000e+01
    1027,    3.500000e+00,    8.166667e+00,    1.633333e+01
    1028,    3.500000e+00,    8.166667e+00,    1.516667e+01
    1029,    3.500000e+00,    9.333333e+00,    3.383333e+01
    1030,    3.500000e+00,    9.333333e+00,    3.266667e+01
    1031,    3.500000e+00,    9.333333e+00,    3.150000e+01
    1032,    3.500000e+00,    9.333333e+00,    3.033333e+01
    1033,    3.500000e+00,    9.333333e+00,    2.916667e+01
    1034,    3.500000e+00,    9.333333e+00,    2.800000e+01
    1035,    3.500000e+00,    9.333333e+00,    2.683333e+01
    1036,    3.500000e+00,    9.333333e+00,    2.566667e+01
    1037,    3.500000e+00,    9.333333e+00,    2.450000e+01
    1038,    3.500000e+00,    9.333333e+00,    2.333333e+01
    1039,    3.500000e+00,    9.333333e+00,    2.216667e+01
    1040,    3.500000e+00,    9.333333e+00,    2.100000e+01
    1041,    3.500000e+00,    9.333333e+00,    1.983333e+01
    1042,    3.500000e+00,    9.333333e+00,    1.866667e+01
    1043,    3.500000e+00,    9.333333e+00,    1.750000e+01
    1044,    3.500000e+00,    9.333333e+00,    1.633333e+01
    1045,    3.500000e+00,    9.333333e+00,    1.516667e+01
    1046,    3.500000e+00,    1.050000e+01,    3.383333e+01
    1047,    3.500000e+00,    1.050000e+01,    3.266667e+01
    1048,    3.500000e+00,    1.050000e+01,    3.150000e+01
    1049,    3.500000e+00,    1.050000e+01,    3.033333e+01
    1050,    3.500000e+00,    1.050000e+01,    2.916667e+01
    1051,    3.500000e+00,    1.050000e+01,    2.800000e+01
    1052,    3.500000e+00,    1.050000e+01,    2.683333e+01
    1053,    3.500000e+00,    1.050000e+01,    2.566667e+01
    1054,    3.500000e+00,    1.050000e+01,    2.450000e+01
    1055,    3.500000e+00,    1.050000e+01,    2.333333e+01
    1056,    3.500000e+00,    1.050000e+01,    2.216667e+01
    1057,    3.500000e+00,    1.050000e+01,    2.100000e+01
    1058,    3.500000e+00,    1.050000e+01,    1.983333e+01
    1059,    3.500000e+00,    1.050000e+01,    1.866667e+01
    1060,    3.500000e+00,    1.050000e+01,    1.750000e+01
    1061,    3.500000e+00,    1.050000e+01,    1.633333e+01
    1062,    3.500000e+00,    1.050000e+01,    1.516667e+01
    1063,    3.500000e+00,    1.166667e+01,    3.383333e+01
    1064,    3.500000e+00,    1.166667e+01,    3.266667e+01
    1065,    3.500000e+00,    1.166667e+01,    3.150000e+01
    1066,    3.500000e+00,    1.166667e+01,    3.033333e+01
    1067,    3.500000e+00,    1.166667e+01,    2.916667e+01
    1068,    3.500000e+00,    1.166667e+01,    2.800000e+01
    1069,    3.500000e+00,    1.166667e+01,    2.683333e+01
    1070,    3.500000e+00,    1.166667e+01,    2.566667e+01
    1071,    3.500000e+00,    1.166667e+01,    2.450000e+01
    1072,    3.500000e+00,    1.166667e+01,    2.333333e+01
    1073,    3.500000e+00,    1.166667e+01,    2.216667e+01
    1074,    3.500000e+00,    1.166667e+01,    2.100000e+01
    1075,    3.500000e+00,    1.166667e+01,    1.983333e+01
    1076,    3.500000e+00,    1.166667e+01,    1.866667e+01
    1077,    3.500000e+00,    1.166667e+01,    1.750000e+01
    1078,    3.500000e+00,    1.166667e+01,    1.633333e+01
    1079,    3.500000e+00,    1.166667e+01,    1.516667e+01
    1080,    3.500000e+00,    1.283333e+01,    3.383333e+01
    1081,    3.500000e+00,    1.283333e+01,    3.266667e+01
    1082,    3.500000e+00,    1.283333e+01,    3.150000e+01
    1083,    3.500000e+00,    1.283333e+01,    3.033333e+01
    1084,    3.500000e+00,    1.283333e+01,    2.916667e+01
    1085,    3.500000e+00,    1.283333e+01,    2.800000e+01
    1086,    3.500000e+00,    1.283333e+01,    2.683333e+01
    1087,    3.500000e+00,    1.283333e+01,    2.566667e+01
    1088,    3.500000e+00,    1.283333e+01,    2.450000e+01
    1089,    3.500000e+00,    1.283333e+01,    2.333333e+01
    1090,    3.500000e+00,    1.283333e+01,    2.216667e+01
    1091,    3.500000e+00,    1.283333e+01,    2.100000e+01
    1092,    3.500000e+00,    1.283333e+01,    1.983333e+01
    1093,    3.500000e+00,    1.283333e+01,    1.866667e+01
    1094,    3.500000e+00,    1.283333e+01,    1.750000e+01
    1095,    3.500000e+00,    1.283333e+01,    1.633333e+01
    1096,    3.500000e+00,    1.283333e+01,    1.516667e+01
    1097,    4.666667e+00,    1.166667e+00,    3.383333e+01
    1098,    4.666667e+00,    1.166667e+00,    3.266667e+01
    1099,    4.666667e+00,    1.166667e+00,    3.150000e+01
    1100,    4.666667e+00,    1.166667e+00,    3.033333e+01
    1101,    4.666667e+00,    1.166667e+00,    2.916667e+01
    1102,    4.666667e+00,    1.166667e+00,    2.800000e+01
    1103,    4.666667e+00,    1.166667e+00,    2.683333e+01
    1104,    4.666667e+00,    1.166667e+00,    2.566667e+01
    1105,    4.666667e+00,    1.166667e+00,    2.450000e+01
    1106,    4.666667e+00,    1.166667e+00,    2.333333e+01
    1107,    4.666667e+00,    1.166667e+00,    2.216667e+01
    1108,    4.666667e+00,    1.166667e+00,    2.100000e+01
    1109,    4.666667e+00,    1.166667e+00,    1.983333e+01
    1110,    4.666667e+00,    1.166667e+00,    1.866667e+01
    1111,    4.666667e+00,    1.166667e+00,    1.750000e+01
    1112,    4.666667e+00,    1.166667e+00,    1.633333e+01
    1113,    4.666667e+00,    1.166667e+00,    1.516667e+01
    1114,    4.666667e+00,    2.333333e+00,    3.383333e+01
    1115,    4.666667e+00,    2.333333e+00,    3.266667e+01
    1116,    4.666667e+00,    2.333333e+00,    3.150000e+01
    1117,    4.666667e+00,    2.333333e+00,    3.033333e+01
    1118,    4.666667e+00,    2.333333e+00,    2.916667e+01
    1119,    4.666667e+00,    2.333333e+00,    2.800000e+01
    1120,    4.666667e+00,    2.333333e+00,    2.683333e+01
    1121,    4.666667e+00,    2.333333e+00,    2.566667e+01
    1122,    4.666667e+00,    2.333333e+00,    2.450000e+01
    1123,    4.666667e+00,    2.333333e+00,    2.333333e+01
    1124,    4.666667e+00,    2.333333e+00,    2.216667e+01
    1125,    4.666667e+00,    2.333333e+00,    2.100000e+01
    1126,    4.666667e+00,    2.333333e+00,    1.983333e+01
    1127,    4.666667e+00,    2.333333e+00,    1.866667e+01
    1128,    4.666667e+00,    2.333333e+00,    1.750000e+01
    1129,    4.666667e+00,    2.333333e+00,    1.633333e+01
    1130,    4.666667e+00,    2.333333e+00,    1.516667e+01
    1131,    4.666667e+00,    3.500000e+00,    3.383333e+01
    1132,    4.666667e+00,    3.500000e+00,    3.266667e+01
    1133,    4.666667e+00,    3.500000e+00,    3.150000e+01
    1134,    4.666667e+00,    3.500000e+00,    3.033333e+01
    1135,    4.666667e+00,    3.500000e+00,    2.916667e+01
    1136,    4.666667e+00,    3.500000e+00,    2.800000e+01
    1137,    4.666667e+00,    3.500000e+00,    2.683333e+01
    1138,    4.666667e+00,    3.500000e+00,    2.566667e+01
    1139,    4.666667e+00,    3.500000e+00,    2.450000e+01
    1140,    4.666667e+00,    3.500000e+00,    2.333333e+01
    1141,    4.666667e+00,    3.500000e+00,    2.216667e+01
    1142,    4.666667e+00,    3.500000e+00,    2.100000e+01
    1143,    4.666667e+00,    3.500000e+00,    1.983333e+01
    1144,    4.666667e+00,    3.500000e+00,    1.866667e+01
    1145,    4.666667e+00,    3.500000e+00,    1.750000e+01
    1146,    4.666667e+00,    3.500000e+00,    1.633333e+01
    1147,    4.666667e+00,    3.500000e+00,    1.516667e+01
    1148,    4.666667e+00,    4.666667e+00,    3.383333e+01
    1149,    4.666667e+00,    4.666667e+00,    3.266667e+01
    1150,    4.666667e+00,    4.666667e+00,    3.150000e+01
    1151,    4.666667e+00,    4.666667e+00,    3.033333e+01
    1152,    4.666667e+00,    4.666667e+00,    2.916667e+01
    1153,    4.666667e+00,    4.666667e+00,    2.800000e+01
    1154,    4.666667e+00,    4.666667e+00,    2.683333e+01
    1155,    4.666667e+00,    4.666667e+00,    2.566667e+01
    1156,    4.666667e+00,    4.666667e+00,    2.450000e+01
    1157,    4.666667e+00,    4.666667e+00,    2.333333e+01
    1158,    4.666667e+00,    4.666667e+00,    2.216667e+01
    1159,    4.666667e+00,    4.666667e+00,    2.100000e+01
    1160,    4.666667e+00,    4.666667e+00,    1.983333e+01
    1161,    4.666667e+00,    4.666667e+00,    1.866667e+01
    1162,    4.666667e+00,    4.666667e+00,    1.750000e+01
    1163,    4.666667e+00,    4.666667e+00,    1.633333e+01
    1164,    4.666667e+00,    4.666667e+00,    1.516667e+01
    1165,    4.666667e+00,    5.833333e+00,    3.383333e+01
    1166,    4.666667e+00,    5.833333e+00,    3.266667e+01
    1167,    4.666667e+00,    5.833333e+00,    3.150000e+01
    1168,    4.666667e+00,    5.833333e+00,    3.033333e+01
    1169,    4.666667e+00,    5.833333e+00,    2.916667e+01
    1170,    4.666667e+00,    5.833333e+00,    2.800000e+01
    1171,    4.666667e+00,    5.833333e+00,    2.683333e+01
    1172,    4.666667e+00,    5.833333e+00,    2.566667e+01
    1173,    4.666667e+00,    5.833333e+00,    2.450000e+01
    1174,    4.666667e+00,    5.833333e+00,    2.333333e+01
    1175,    4.666667e+00,    5.833333e+00,    2.216667e+01
    1176,    4.666667e+00,    5.833333e+00,    2.100000e+01
    1177,    4.666667e+00,    5.833333e+00,    1.983333e+01
    1178,    4.666667e+00,    5.833333e+00,    1.866667e+01
    1179,    4.666667e+00,    5.833333e+00,    1.750000e+01
    1180,    4.666667e+00,    5.833333e+00,    1.633333e+01
    1181,    4.666667e+00,    5.833333e+00,    1.516667e+01
    1182,    4.666667e+00,    7.000000e+00,    3.383333e+01
    1183,    4.666667e+00,    7.000000e+00,    3.266667e+01
    1184,    4.666667e+00,    7.000000e+00,    3.150000e+01
    1185,    4.666667e+00,    7.000000e+00,    3.033333e+01
    1186,    4.666667e+00,    7.000000e+00,    2.916667e+01
    1187,    4.666667e+00,    7.000000e+00,    2.800000e+01
    1188,    4.666667e+00,    7.000000e+00,    2.683333e+01
    1189,    4.666667e+00,    7.000000e+00,    2.566667e+01
    1190,    4.666667e+00,    7.000000e+00,    2.450000e+01
    1191,    4.666667e+00,    7.000000e+00,    2.333333e+01
    1192,    4.666667e+00,    7.000000e+00,    2.216667e+01
    1193,    4.666667e+00,    7.000000e+00,    2.100000e+01
    1194,    4.666667e+00,    7.000000e+00,    1.983333e+01
    1195,    4.666667e+00,    7.000000e+00,    1.866667e+01
    1196,    4.666667e+00,    7.000000e+00,    1.750000e+01
    1197,    4.666667e+00,    7.000000e+00,    1.633333e+01
    1198,    4.666667e+00,    7.000000e+00,    1.516667e+01
    1199,    4.666667e+00,    8.166667e+00,    3.383333e+01
    1200,    4.666667e+00,    8.166667e+00,    3.266667e+01
    1201,    4.666667e+00,    8.166667e+00,    3.150000e+01
    1202,    4.666667e+00,    8.166667e+00,    3.033333e+01
    1203,    4.666667e+00,    8.166667e+00,    2.916667e+01
    1204,    4.666667e+00,    8.166667e+00,    2.800000e+01
    1205,    4.666667e+00,    8.166667e+00,    2.683333e+01
    1206,    4.666667e+00,    8.166667e+00,    2.566667e+01
    1207,    4.666667e+00,    8.166667e+00,    2.450000e+01
    1208,    4.666667e+00,    8.166667e+00,    2.333333e+01
    1209,    4.666667e+00,    8.166667e+00,    2.216667e+01
    1210,    4.666667e+00,    8.166667e+00,    2.100000e+01
    1211,    4.666667e+00,    8.166667e+00,    1.983333e+01
    1212,    4.666667e+00,    8.166667e+00,    1.866667e+01
    1213,    4.666667e+00,    8.166667e+00,    1.750000e+01
    1214,    4.666667e+00,    8.166667e+00,    1.633333e+01
    1215,    4.666667e+00,    8.166667e+00,    1.516667e+01
    1216,    4.666667e+00,    9.333333e+00,    3.383333e+01
    1217,    4.666667e+00,    9.333333e+00,    3.266667e+01
    1218,    4.666667e+00,    9.333333e+00,    3.150000e+01
    1219,    4.666667e+00,    9.333333e+00,    3.033333e+01
    1220,    4.666667e+00,    9.333333e+00,    2.916667e+01
    1221,    4.666667e+00,    9.333333e+00,    2.800000e+01
    1222,    4.666667e+00,    9.333333e+00,    2.683333e+01
    1223,    4.666667e+00,    9.333333e+00,    2.566667e+01
    1224,    4.666667e+00,    9.333333e+00,    2.450000e+01
    1225,    4.666667e+00,    9.333333e+00,    2.333333e+01
    1226,    4.666667e+00,    9.333333e+00,    2.216667e+01
    1227,    4.666667e+00,    9.333333e+00,    2.100000e+01
    1228,    4.666667e+00,    9.333333e+00,    1.983333e+01
    1229,    4.666667e+00,    9.333333e+00,    1.866667e+01
    1230,    4.666667e+00,    9.333333e+00,    1.750000e+01
    1231,    4.666667e+00,    9.333333e+00,    1.633333e+01
    1232,    4.666667e+00,    9.333333e+00,    1.516667e+01
    1233,    4.666667e+00,    1.050000e+01,    3.383333e+01
    1234,    4.666667e+00,    1.050000e+01,    3.266667e+01
    1235,    4.666667e+00,    1.050000e+01,    3.150000e+01
    1236,    4.666667e+00,    1.050000e+01,    3.033333e+01
    1237,    4.666667e+00,    1.050000e+01,    2.916667e+01
    1238,    4.666667e+00,    1.050000e+01,    2.800000e+01
    1239,    4.666667e+00,    1.050000e+01,    2.683333e+01
    1240,    4.666667e+00,    1.050000e+01,    2.566667e+01
    1241,    4.666667e+00,    1.050000e+01,    2.450000e+01
    1242,    4.666667e+00,    1.050000e+01,    2.333333e+01
    1243,    4.666667e+00,    1.050000e+01,    2.216667e+01
    1244,    4.666667e+00,    1.050000e+01,    2.100000e+01
    1245,    4.666667e+00,    1.050000e+01,    1.983333e+01
    1246,    4.666667e+00,    1.050000e+01,    1.866667e+01
    1247,    4.666667e+00,    1.050000e+01,    1.750000e+01
    1248,    4.666667e+00,    1.050000e+01,    1.633333e+01
    1249,    4.666667e+00,    1.050000e+01,    1.516667e+01
    1250,    4.666667e+00,    1.166667e+01,    3.383333e+01
    1251,    4.666667e+00,    1.166667e+01,    3.266667e+01
    1252,    4.666667e+00,    1.166667e+01,    3.150000e+01
    1253,    4.666667e+00,    1.166667e+01,    3.033333e+01
    1254,    4.666667e+00,    1.166667e+01,    2.916667e+01
    1255,    4.666667e+00,    1.166667e+01,    2.800000e+01
    1256,    4.666667e+00,    1.166667e+01,    2.683333e+01
    1257,    4.666667e+00,    1.166667e+01,    2.566667e+01
    1258,    4.666667e+00,    1.166667e+01,    2.450000e+01
    1259,    4.666667e+00,    1.166667e+01,    2.333333e+01
    1260,    4.666667e+00,    1.166667e+01,    2.216667e+01
    1261,    4.666667e+00,    1.166667e+01,    2.100000e+01
    1262,    4.666667e+00,    1.166667e+01,    1.983333e+01
    1263,    4.666667e+00,    1.166667e+01,    1.866667e+01
    1264,    4.666667e+00,    1.166667e+01,    1.750000e+01
    1265,    4.666667e+00,    1.166667e+01,    1.633333e+01
    1266,    4.666667e+00,    1.166667e+01,    1.516667e+01
    1267,    4.666667e+00,    1.283333e+01,    3.383333e+01
    1268,    4.666667e+00,    1.283333e+01,    3.266667e+01
    1269,    4.666667e+00,    1.283333e+01,    3.150000e+01
    1270,    4.666667e+00,    1.283333e+01,    3.033333e+01
    1271,    4.666667e+00,    1.283333e+01,    2.916667e+01
    1272,    4.666667e+00,    1.283333e+01,    2.800000e+01
    1273,    4.666667e+00,    1.283333e+01,    2.683333e+01
    1274,    4.666667e+00,    1.283333e+01,    2.566667e+01
    1275,    4.666667e+00,    1.283333e+01,    2.450000e+01
    1276,    4.666667e+00,    1.283333e+01,    2.333333e+01
    1277,    4.666667e+00,    1.283333e+01,    2.216667e+01
    1278,    4.666667e+00,    1.283333e+01,    2.100000e+01
    1279,    4.666667e+00,    1.283333e+01,    1.983333e+01
    1280,    4.666667e+00,    1.283333e+01,    1.866667e+01
    1281,    4.666667e+00,    1.283333e+01,    1.750000e+01
    1282,    4.666667e+00,    1.283333e+01,    1.633333e+01
    1283,    4.666667e+00,    1.283333e+01,    1.516667e+01
    1284,    5.833333e+00,    1.166667e+00,    3.383333e+01
    1285,    5.833333e+00,    1.166667e+00,    3.266667e+01
    1286,    5.833333e+00,    1.166667e+00,    3.150000e+01
    1287,    5.833333e+00,    1.166667e+00,    3.033333e+01
    1288,    5.833333e+00,    1.166667e+00,    2.916667e+01
    1289,    5.833333e+00,    1.166667e+00,    2.800000e+01
    1290,    5.833333e+00,    1.166667e+00,    2.683333e+01
    1291,    5.833333e+00,    1.166667e+00,    2.566667e+01
    1292,    5.833333e+00,    1.166667e+00,    2.450000e+01
    1293,    5.833333e+00,    1.166667e+00,    2.333333e+01
    1294,    5.833333e+00,    1.166667e+00,    2.216667e+01
    1295,    5.833333e+00,    1.166667e+00,    2.100000e+01
    1296,    5.833333e+00,    1.166667e+00,    1.983333e+01
    1297,    5.833333e+00,    1.166667e+00,    1.866667e+01
    1298,    5.833333e+00,    1.166667e+00,    1.750000e+01
    1299,    5.833333e+00,    1.166667e+00,    1.633333e+01
    1300,    5.833333e+00,    1.166667e+00,    1.516667e+01
    1301,    5.833333e+00,    2.333333e+00,    3.383333e+01
    1302,    5.833333e+00,    2.333333e+00,    3.266667e+01
    1303,    5.833333e+00,    2.333333e+00,    3.150000e+01
    1304,    5.833333e+00,    2.333333e+00,    3.033333e+01
    1305,    5.833333e+00,    2.333333e+00,    2.916667e+01
    1306,    5.833333e+00,    2.333333e+00,    2.800000e+01
    1307,    5.833333e+00,    2.333333e+00,    2.683333e+01
    1308,    5.833333e+00,    2.333333e+00,    2.566667e+01
    1309,    5.833333e+00,    2.333333e+00,    2.450000e+01
    1310,    5.833333e+00,    2.333333e+00,    2.333333e+01
    1311,    5.833333e+00,    2.333333e+00,    2.216667e+01
    1312,    5.833333e+00,    2.333333e+00,    2.100000e+01
    1313,    5.833333e+00,    2.333333e+00,    1.983333e+01
    1314,    5.833333e+00,    2.333333e+00,    1.866667e+01
    1315,    5.833333e+00,    2.333333e+00,    1.750000e+01
    1316,    5.833333e+00,    2.333333e+00,    1.633333e+01
    1317,    5.833333e+00,    2.333333e+00,    1.516667e+01
    1318,    5.833333e+00,    3.500000e+00,    3.383333e+01
    1319,    5.833333e+00,    3.500000e+00,    3.266667e+01
    1320,    5.833333e+00,    3.500000e+00,    3.150000e+01
    1321,    5.833333e+00,    3.500000e+00,    3.033333e+01
    1322,    5.833333e+00,    3.500000e+00,    2.916667e+01
    1323,    5.833333e+00,    3.500000e+00,    2.800000e+01
    1324,    5.833333e+00,    3.500000e+00,    2.683333e+01
    1325,    5.833333e+00,    3.500000e+00,    2.566667e+01
    1326,    5.833333e+00,    3.500000e+00,    2.450000e+01
    1327,    5.833333e+00,    3.500000e+00,    2.333333e+01
    1328,    5.833333e+00,    3.500000e+00,    2.216667e+01
    1329,    5.833333e+00,    3.500000e+00,    2.100000e+01
    1330,    5.833333e+00,    3.500000e+00,    1.983333e+01
    1331,    5.833333e+00,    3.500000e+00,    1.866667e+01
    1332,    5.833333e+00,    3.500000e+00,    1.750000e+01
    1333,    5.833333e+00,    3.500000e+00,    1.633333e+01
    1334,    5.833333e+00,    3.500000e+00,    1.516667e+01
    1335,    5.833333e+00,    4.666667e+00,    3.383333e+01
    1336,    5.833333e+00,    4.666667e+00,    3.266667e+01
    1337,    5.833333e+00,    4.666667e+00,    3.150000e+01
    1338,    5.833333e+00,    4.666667e+00,    3.033333e+01
    1339,    5.833333e+00,    4.666667e+00,    2.916667e+01
    1340,    5.833333e+00,    4.666667e+00,    2.800000e+01
    1341,    5.833333e+00,    4.666667e+00,    2.683333e+01
    1342,    5.833333e+00,    4.666667e+00,    2.566667e+01
    1343,    5.833333e+00,    4.666667e+00,    2.450000e+01
    1344,    5.833333e+00,    4.666667e+00,    2.333333e+01
    1345,    5.833333e+00,    4.666667e+00,    2.216667e+01
    1346,    5.833333e+00,    4.666667e+00,    2.100000e+01
    1347,    5.833333e+00,    4.666667e+00,    1.983333e+01
    1348,    5.833333e+00,    4.666667e+00,    1.866667e+01
    1349,    5.833333e+00,    4.666667e+00,    1.750000e+01
    1350,    5.833333e+00,    4.666667e+00,    1.633333e+01
    1351,    5.833333e+00,    4.666667e+00,    1.516667e+01
    1352,    5.833333e+00,    5.833333e+00,    3.383333e+01
    1353,    5.833333e+00,    5.833333e+00,    3.266667e+01
    1354,    5.833333e+00,    5.833333e+00,    3.150000e+01
    1355,    5.833333e+00,    5.833333e+00,    3.033333e+01
    1356,    5.833333e+00,    5.833333e+00,    2.916667e+01
    1357,    5.833333e+00,    5.833333e+00,    2.800000e+01
    1358,    5.833333e+00,    5.833333e+00,    2.683333e+01
    1359,    5.833333e+00,    5.833333e+00,    2.566667e+01
    1360,    5.833333e+00,    5.833333e+00,    2.450000e+01
    1361,    5.833333e+00,    5.833333e+00,    2.333333e+01
    1362,    5.833333e+00,    5.833333e+00,    2.216667e+01
    1363,    5.833333e+00,    5.833333e+00,    2.100000e+01
    1364,    5.833333e+00,    5.833333e+00,    1.983333e+01
    1365,    5.833333e+00,    5.833333e+00,    1.866667e+01
    1366,    5.833333e+00,    5.833333e+00,    1.750000e+01
    1367,    5.833333e+00,    5.833333e+00,    1.633333e+01
    1368,    5.833333e+00,    5.833333e+00,    1.516667e+01
    1369,    5.833333e+00,    7.000000e+00,    3.383333e+01
    1370,    5.833333e+00,    7.000000e+00,    3.266667e+01
    1371,    5.833333e+00,    7.000000e+00,    3.150000e+01
    1372,    5.833333e+00,    7.000000e+00,    3.033333e+01
    1373,    5.833333e+00,    7.000000e+00,    2.916667e+01
    1374,    5.833333e+00,    7.000000e+00,    2.800000e+01
    1375,    5.833333e+00,    7.000000e+00,    2.683333e+01
    1376,    5.833333e+00,    7.000000e+00,    2.566667e+01
    1377,    5.833333e+00,    7.000000e+00,    2.450000e+01
    1378,    5.833333e+00,    7.000000e+00,    2.333333e+01
    1379,    5.833333e+00,    7.000000e+00,    2.216667e+01
    1380,    5.833333e+00,    7.000000e+00,    2.100000e+01
    1381,    5.833333e+00,    7.000000e+00,    1.983333e+01
    1382,    5.833333e+00,    7.000000e+00,    1.866667e+01
    1383,    5.833333e+00,    7.000000e+00,    1.750000e+01
    1384,    5.833333e+00,    7.000000e+00,    1.633333e+01
    1385,    5.833333e+00,    7.000000e+00,    1.516667e+01
    1386,    5.833333e+00,    8.166667e+00,    3.383333e+01
    1387,    5.833333e+00,    8.166667e+00,    3.266667e+01
    1388,    5.833333e+00,    8.166667e+00,    3.150000e+01
    1389,    5.833333e+00,    8.166667e+00,    3.033333e+01
    1390,    5.833333e+00,    8.166667e+00,    2.916667e+01
    1391,    5.833333e+00,    8.166667e+00,    2.800000e+01
    1392,    5.833333e+00,    8.166667e+00,    2.683333e+01
    1393,    5.833333e+00,    8.166667e+00,    2.566667e+01
    1394,    5.833333e+00,    8.166667e+00,    2.450000e+01
    1395,    5.833333e+00,    8.166667e+00,    2.333333e+01
    1396,    5.833333e+00,    8.166667e+00,    2.216667e+01
    1397,    5.833333e+00,    8.166667e+00,    2.100000e+01
    1398,    5.833333e+00,    8.166667e+00,    1.983333e+01
    1399,    5.833333e+00,    8.166667e+00,    1.866667e+01
    1400,    5.833333e+00,    8.166667e+00,    1.750000e+01
    1401,    5.833333e+00,    8.166667e+00,    1.633333e+01
    1402,    5.833333e+00,    8.166667e+00,    1.516667e+01
    1403,    5.833333e+00,    9.333333e+00,    3.383333e+01
    1404,    5.833333e+00,    9.333333e+00,    3.266667e+01
    1405,    5.833333e+00,    9.333333e+00,    3.150000e+01
    1406,    5.833333e+00,    9.333333e+00,    3.033333e+01
    1407,    5.833333e+00,    9.333333e+00,    2.916667e+01
    1408,    5.833333e+00,    9.333333e+00,    2.800000e+01
    1409,    5.833333e+00,    9.333333e+00,    2.683333e+01
    1410,    5.833333e+00,    9.333333e+00,    2.566667e+01
    1411,    5.833333e+00,    9.333333e+00,    2.450000e+01
    1412,    5.833333e+00,    9.333333e+00,    2.333333e+01
    1413,    5.833333e+00,    9.333333e+00,    2.216667e+01
    1414,    5.833333e+00,    9.333333e+00,    2.100000e+01
    1415,    5.833333e+00,    9.333333e+00,    1.983333e+01
    1416,    5.833333e+00,    9.333333e+00,    1.866667e+01
    1417,    5.833333e+00,    9.333333e+00,    1.750000e+01
    1418,    5.833333e+00,    9.333333e+00,    1.633333e+01
    1419,    5.833333e+00,    9.333333e+00,    1.516667e+01
    1420,    5.833333e+00,    1.050000e+01,    3.383333e+01
    1421,    5.833333e+00,    1.050000e+01,    3.266667e+01
    1422,    5.833333e+00,    1.050000e+01,    3.150000e+01
    1423,    5.833333e+00,    1.050000e+01,    3.033333e+01
    1424,    5.833333e+00,    1.050000e+01,    2.916667e+01
    1425,    5.833333e+00,    1.050000e+01,    2.800000e+01
    1426,    5.833333e+00,    1.050000e+01,    2.683333e+01
    1427,    5.833333e+00,    1.050000e+01,    2.566667e+01
    1428,    5.833333e+00,    1.050000e+01,    2.450000e+01
    1429,    5.833333e+00,    1.050000e+01,    2.333333e+01
    1430,    5.833333e+00,    1.050000e+01,    2.216667e+01
    1431,    5.833333e+00,    1.050000e+01,    2.100000e+01
    1432,    5.833333e+00,    1.050000e+01,    1.983333e+01
    1433,    5.833333e+00,    1.050000e+01,    1.866667e+01
    1434,    5.833333e+00,    1.050000e+01,    1.750000e+01
    1435,    5.833333e+00,    1.050000e+01,    1.633333e+01
    1436,    5.833333e+00,    1.050000e+01,    1.516667e+01
    1437,    5.833333e+00,    1.166667e+01,    3.383333e+01
    1438,    5.833333e+00,    1.166667e+01,    3.266667e+01
    1439,    5.833333e+00,    1.166667e+01,    3.150000e+01
    1440,    5.833333e+00,    1.166667e+01,    3.033333e+01
    1441,    5.833333e+00,    1.166667e+01,    2.916667e+01
    1442,    5.833333e+00,    1.166667e+01,    2.800000e+01
    1443,    5.833333e+00,    1.166667e+01,    2.683333e+01
    1444,    5.833333e+00,    1.166667e+01,    2.566667e+01
    1445,    5.833333e+00,    1.166667e+01,    2.450000e+01
    1446,    5.833333e+00,    1.166667e+01,    2.333333e+01
    1447,    5.833333e+00,    1.166667e+01,    2.216667e+01
    1448,    5.833333e+00,    1.166667e+01,    2.100000e+01
    1449,    5.833333e+00,    1.166667e+01,    1.983333e+01
    1450,    5.833333e+00,    1.166667e+01,    1.866667e+01
    1451,    5.833333e+00,    1.166667e+01,    1.750000e+01
    1452,    5.833333e+00,    1.166667e+01,    1.633333e+01
    1453,    5.833333e+00,    1.166667e+01,    1.516667e+01
    1454,    5.833333e+00,    1.283333e+01,    3.383333e+01
    1455,    5.833333e+00,    1.283333e+01,    3.266667e+01
    1456,    5.833333e+00,    1.283333e+01,    3.150000e+01
    1457,    5.833333e+00,    1.283333e+01,    3.033333e+01
    1458,    5.833333e+00,    1.283333e+01,    2.916667e+01
    1459,    5.833333e+00,    1.283333e+01,    2.800000e+01
    1460,    5.833333e+00,    1.283333e+01,    2.683333e+01
    1461,    5.833333e+00,    1.283333e+01,    2.566667e+01
    1462,    5.833333e+00,    1.283333e+01,    2.450000e+01
    1463,    5.833333e+00,    1.283333e+01,    2.333333e+01
    1464,    5.833333e+00,    1.283333e+01,    2.216667e+01
    1465,    5.833333e+00,    1.283333e+01,    2.100000e+01
    1466,    5.833333e+00,    1.283333e+01,    1.983333e+01
    1467,    5.833333e+00,    1.283333e+01,    1.866667e+01
    1468,    5.833333e+00,    1.283333e+01,    1.750000e+01
    1469,    5.833333e+00,    1.283333e+01,    1.633333e+01
    1470,    5.833333e+00,    1.283333e+01,    1.516667e+01
    1471,    7.000000e+00,    1.166667e+00,    3.383333e+01
    1472,    7.000000e+00,    1.166667e+00,    3.266667e+01
    1473,    7.000000e+00,    1.166667e+00,    3.150000e+01
    1474,    7.000000e+00,    1.166667e+00,    3.033333e+01
    1475,    7.000000e+00,    1.166667e+00,    2.916667e+01
    1476,    7.000000e+00,    1.166667e+00,    2.800000e+01
    1477,    7.000000e+00,    1.166667e+00,    2.683333e+01
    1478,    7.000000e+00,    1.166667e+00,    2.566667e+01
    1479,    7.000000e+00,    1.166667e+00,    2.450000e+01
    1480,    7.000000e+00,    1.166667e+00,    2.333333e+01
    1481,    7.000000e+00,    1.166667e+00,    2.216667e+01
    1482,    7.000000e+00,    1.166667e+00,    2.100000e+01
    1483,    7.000000e+00,    1.166667e+00,    1.983333e+01
    1484,    7.000000e+00,    1.166667e+00,    1.866667e+01
    1485,    7.000000e+00,    1.166667e+00,    1.750000e+01
    1486,    7.000000e+00,    1.166667e+00,    1.633333e+01
    1487,    7.000000e+00,    1.166667e+00,    1.516667e+01
    1488,    7.000000e+00,    2.333333e+00,    3.383333e+01
    1489,    7.000000e+00,    2.333333e+00,    3.266667e+01
    1490,    7.000000e+00,    2.333333e+00,    3.150000e+01
    1491,    7.000000e+00,    2.333333e+00,    3.033333e+01
    1492,    7.000000e+00,    2.333333e+00,    2.916667e+01
    1493,    7.000000e+00,    2.333333e+00,    2.800000e+01
    1494,    7.000000e+00,    2.333333e+00,    2.683333e+01
    1495,    7.000000e+00,    2.333333e+00,    2.566667e+01
    1496,    7.000000e+00,    2.333333e+00,    2.450000e+01
    1497,    7.000000e+00,    2.333333e+00,    2.333333e+01
    1498,    7.000000e+00,    2.333333e+00,    2.216667e+01
    1499,    7.000000e+00,    2.333333e+00,    2.100000e+01
    1500,    7.000000e+00,    2.333333e+00,    1.983333e+01
    1501,    7.000000e+00,    2.333333e+00,    1.866667e+01
    1502,    7.000000e+00,    2.333333e+00,    1.750000e+01
    1503,    7.000000e+00,    2.333333e+00,    1.633333e+01
    1504,    7.000000e+00,    2.333333e+00,    1.516667e+01
    1505,    7.000000e+00,    3.500000e+00,    3.383333e+01
    1506,    7.000000e+00,    3.500000e+00,    3.266667e+01
    1507,    7.000000e+00,    3.500000e+00,    3.150000e+01
    1508,    7.000000e+00,    3.500000e+00,    3.033333e+01
    1509,    7.000000e+00,    3.500000e+00,    2.916667e+01
    1510,    7.000000e+00,    3.500000e+00,    2.800000e+01
    1511,    7.000000e+00,    3.500000e+00,    2.683333e+01
    1512,    7.000000e+00,    3.500000e+00,    2.566667e+01
    1513,    7.000000e+00,    3.500000e+00,    2.450000e+01
    1514,    7.000000e+00,    3.500000e+00,    2.333333e+01
    1515,    7.000000e+00,    3.500000e+00,    2.216667e+01
    1516,    7.000000e+00,    3.500000e+00,    2.100000e+01
    1517,    7.000000e+00,    3.500000e+00,    1.983333e+01
    1518,    7.000000e+00,    3.500000e+00,    1.866667e+01
    1519,    7.000000e+00,    3.500000e+00,    1.750000e+01
    1520,    7.000000e+00,    3.500000e+00,    1.633333e+01
    1521,    7.000000e+00,    3.500000e+00,    1.516667e+01
    1522,    7.000000e+00,    4.666667e+00,    3.383333e+01
    1523,    7.000000e+00,    4.666667e+00,    3.266667e+01
    1524,    7.000000e+00,    4.666667e+00,    3.150000e+01
    1525,    7.000000e+00,    4.666667e+00,    3.033333e+01
    1526,    7.000000e+00,    4.666667e+00,    2.916667e+01
    1527,    7.000000e+00,    4.666667e+00,    2.800000e+01
    1528,    7.000000e+00,    4.666667e+00,    2.683333e+01
    1529,    7.000000e+00,    4.666667e+00,    2.566667e+01
    1530,    7.000000e+00,    4.666667e+00,    2.450000e+01
    1531,    7.000000e+00,    4.666667e+00,    2.333333e+01
    1532,    7.000000e+00,    4.666667e+00,    2.216667e+01
    1533,    7.000000e+00,    4.666667e+00,    2.100000e+01
    1534,    7.000000e+00,    4.666667e+00,    1.983333e+01
    1535,    7.000000e+00,    4.666667e+00,    1.866667e+01
    1536,    7.000000e+00,    4.666667e+00,    1.750000e+01
    1537,    7.000000e+00,    4.666667e+00,    1.633333e+01
    1538,    7.000000e+00,    4.666667e+00,    1.516667e+01
    1539,    7.000000e+00,    5.833333e+00,    3.383333e+01
    1540,    7.000000e+00,    5.833333e+00,    3.266667e+01
    1541,    7.000000e+00,    5.833333e+00,    3.150000e+01
    1542,    7.000000e+00,    5.833333e+00,    3.033333e+01
    1543,    7.000000e+00,    5.833333e+00,    2.916667e+01
    1544,    7.000000e+00,    5.833333e+00,    2.800000e+01
    1545,    7.000000e+00,    5.833333e+00,    2.683333e+01
    1546,    7.000000e+00,    5.833333e+00,    2.566667e+01
    1547,    7.000000e+00,    5.833333e+00,    2.450000e+01
    1548,    7.000000e+00,    5.833333e+00,    2.333333e+01
    1549,    7.000000e+00,    5.833333e+00,    2.216667e+01
    1550,    7.000000e+00,    5.833333e+00,    2.100000e+01
    1551,    7.000000e+00,    5.833333e+00,    1.983333e+01
    1552,    7.000000e+00,    5.833333e+00,    1.866667e+01
    1553,    7.000000e+00,    5.833333e+00,    1.750000e+01
    1554,    7.000000e+00,    5.833333e+00,    1.633333e+01
    1555,    7.000000e+00,    5.833333e+00,    1.516667e+01
    1556,    7.000000e+00,    7.000000e+00,    3.383333e+01
    1557,    7.000000e+00,    7.000000e+00,    3.266667e+01
    1558,    7.000000e+00,    7.000000e+00,    3.150000e+01
    1559,    7.000000e+00,    7.000000e+00,    3.033333e+01
    1560,    7.000000e+00,    7.000000e+00,    2.916667e+01
    1561,    7.000000e+00,    7.000000e+00,    2.800000e+01
    1562,    7.000000e+00,    7.000000e+00,    2.683333e+01
    1563,    7.000000e+00,    7.000000e+00,    2.566667e+01
    1564,    7.000000e+00,    7.000000e+00,    2.450000e+01
    1565,    7.000000e+00,    7.000000e+00,    2.333333e+01
    1566,    7.000000e+00,    7.000000e+00,    2.216667e+01
    1567,    7.000000e+00,    7.000000e+00,    2.100000e+01
    1568,    7.000000e+00,    7.000000e+00,    1.983333e+01
    1569,    7.000000e+00,    7.000000e+00,    1.866667e+01
    1570,    7.000000e+00,    7.000000e+00,    1.750000e+01
    1571,    7.000000e+00,    7.000000e+00,    1.633333e+01
    1572,    7.000000e+00,    7.000000e+00,    1.516667e+01
    1573,    7.000000e+00,    8.166667e+00,    3.383333e+01
    1574,    7.000000e+00,    8.166667e+00,    3.266667e+01
    1575,    7.000000e+00,    8.166667e+00,    3.150000e+01
    1576,    7.000000e+00,    8.166667e+00,    3.033333e+01
    1577,    7.000000e+00,    8.166667e+00,    2.916667e+01
    1578,    7.000000e+00,    8.166667e+00,    2.800000e+01
    1579,    7.000000e+00,    8.166667e+00,    2.683333e+01
    1580,    7.000000e+00,    8.166667e+00,    2.566667e+01
    1581,    7.000000e+00,    8.166667e+00,    2.450000e+01
    1582,    7.000000e+00,    8.166667e+00,    2.333333e+01
    1583,    7.000000e+00,    8.166667e+00,    2.216667e+01
    1584,    7.000000e+00,    8.166667e+00,    2.100000e+01
    1585,    7.000000e+00,    8.166667e+00,    1.983333e+01
    1586,    7.000000e+00,    8.166667e+00,    1.866667e+01
    1587,    7.000000e+00,    8.166667e+00,    1.750000e+01
    1588,    7.000000e+00,    8.166667e+00,    1.633333e+01
    1589,    7.000000e+00,    8.166667e+00,    1.516667e+01
    1590,    7.000000e+00,    9.333333e+00,    3.383333e+01
    1591,    7.000000e+00,    9.333333e+00,    3.266667e+01
    1592,    7.000000e+00,    9.333333e+00,    3.150000e+01
    1593,    7.000000e+00,    9.333333e+00,    3.033333e+01
    1594,    7.000000e+00,    9.333333e+00,    2.916667e+01
    1595,    7.000000e+00,    9.333333e+00,    2.800000e+01
    1596,    7.000000e+00,    9.333333e+00,    2.683333e+01
    1597,    7.000000e+00,    9.333333e+00,    2.566667e+01
    1598,    7.000000e+00,    9.333333e+00,    2.450000e+01
    1599,    7.000000e+00,    9.333333e+00,    2.333333e+01
    1600,    7.000000e+00,    9.333333e+00,    2.216667e+01
    1601,    7.000000e+00,    9.333333e+00,    2.100000e+01
    1602,    7.000000e+00,    9.333333e+00,    1.983333e+01
    1603,    7.000000e+00,    9.333333e+00,    1.866667e+01
    1604,    7.000000e+00,    9.333333e+00,    1.750000e+01
    1605,    7.000000e+00,    9.333333e+00,    1.633333e+01
    1606,    7.000000e+00,    9.333333e+00,    1.516667e+01
    1607,    7.000000e+00,    1.050000e+01,    3.383333e+01
    1608,    7.000000e+00,    1.050000e+01,    3.266667e+01
    1609,    7.000000e+00,    1.050000e+01,    3.150000e+01
    1610,    7.000000e+00,    1.050000e+01,    3.033333e+01
    1611,    7.000000e+00,    1.050000e+01,    2.916667e+01
    1612,    7.000000e+00,    1.050000e+01,    2.800000e+01
    1613,    7.000000e+00,    1.050000e+01,    2.683333e+01
    1614,    7.000000e+00,    1.050000e+01,    2.566667e+01
    1615,    7.000000e+00,    1.050000e+01,    2.450000e+01
    1616,    7.000000e+00,    1.050000e+01,    2.333333e+01
    1617,    7.000000e+00,    1.050000e+01,    2.216667e+01
    1618,    7.000000e+00,    1.050000e+01,    2.100000e+01
    1619,    7.000000e+00,    1.050000e+01,    1.983333e+01
    1620,    7.000000e+00,    1.050000e+01,    1.866667e+01
    1621,    7.000000e+00,    1.050000e+01,    1.750000e+01
    1622,    7.000000e+00,    1.050000e+01,    1.633333e+01
    1623,    7.000000e+00,    1.050000e+01,    1.516667e+01
    1624,    7.000000e+00,    1.166667e+01,    3.383333e+01
    1625,    7.000000e+00,    1.166667e+01,    3.266667e+01
    1626,    7.000000e+00,    1.166667e+01,    3.150000e+01
    1627,    7.000000e+00,    1.166667e+01,    3.033333e+01
    1628,    7.000000e+00,    1.166667e+01,    2.916667e+01
    1629,    7.000000e+00,    1.166667e+01,    2.800000e+01
    1630,    7.000000e+00,    1.166667e+01,    2.683333e+01
    1631,    7.000000e+00,    1.166667e+01,    2.566667e+01
    1632,    7.000000e+00,    1.166667e+01,    2.450000e+01
    1633,    7.000000e+00,    1.166667e+01,    2.333333e+01
    1634,    7.000000e+00,    1.166667e+01,    2.216667e+01
    1635,    7.000000e+00,    1.166667e+01,    2.100000e+01
    1636,    7.000000e+00,    1.166667e+01,    1.983333e+01
    1637,    7.000000e+00,    1.166667e+01,    1.866667e+01
    1638,    7.000000e+00,    1.166667e+01,    1.750000e+01
    1639,    7.000000e+00,    1.166667e+01,    1.633333e+01
    1640,    7.000000e+00,    1.166667e+01,    1.516667e+01
    1641,    7.000000e+00,    1.283333e+01,    3.383333e+01
    1642,    7.000000e+00,    1.283333e+01,    3.266667e+01
    1643,    7.000000e+00,    1.283333e+01,    3.150000e+01
    1644,    7.000000e+00,    1.283333e+01,    3.033333e+01
    1645,    7.000000e+00,    1.283333e+01,    2.916667e+01
    1646,    7.000000e+00,    1.283333e+01,    2.800000e+01
    1647,    7.000000e+00,    1.283333e+01,    2.683333e+01
    1648,    7.000000e+00,    1.283333e+01,    2.566667e+01
    1649,    7.000000e+00,    1.283333e+01,    2.450000e+01
    1650,    7.000000e+00,    1.283333e+01,    2.333333e+01
    1651,    7.000000e+00,    1.283333e+01,    2.216667e+01
    1652,    7.000000e+00,    1.283333e+01,    2.100000e+01
    1653,    7.000000e+00,    1.283333e+01,    1.983333e+01
    1654,    7.000000e+00,    1.283333e+01,    1.866667e+01
    1655,    7.000000e+00,    1.283333e+01,    1.750000e+01
    1656,    7.000000e+00,    1.283333e+01,    1.633333e+01
    1657,    7.000000e+00,    1.283333e+01,    1.516667e+01
    1658,    8.166667e+00,    1.166667e+00,    3.383333e+01
    1659,    8.166667e+00,    1.166667e+00,    3.266667e+01
    1660,    8.166667e+00,    1.166667e+00,    3.150000e+01
    1661,    8.166667e+00,    1.166667e+00,    3.033333e+01
    1662,    8.166667e+00,    1.166667e+00,    2.916667e+01
    1663,    8.166667e+00,    1.166667e+00,    2.800000e+01
    1664,    8.166667e+00,    1.166667e+00,    2.683333e+01
    1665,    8.166667e+00,    1.166667e+00,    2.566667e+01
    1666,    8.166667e+00,    1.166667e+00,    2.450000e+01
    1667,    8.166667e+00,    1.166667e+00,    2.333333e+01
    1668,    8.166667e+00,    1.166667e+00,    2.216667e+01
    1669,    8.166667e+00,    1.166667e+00,    2.100000e+01
    1670,    8.166667e+00,    1.166667e+00,    1.983333e+01
    1671,    8.166667e+00,    1.166667e+00,    1.866667e+01
    1672,    8.166667e+00,    1.166667e+00,    1.750000e+01
    1673,    8.166667e+00,    1.166667e+00,    1.633333e+01
    1674,    8.166667e+00,    1.166667e+00,    1.516667e+01
    1675,    8.166667e+00,    2.333333e+00,    3.383333e+01
    1676,    8.166667e+00,    2.333333e+00,    3.266667e+01
    1677,    8.166667e+00,    2.333333e+00,    3.150000e+01
    1678,    8.166667e+00,    2.333333e+00,    3.033333e+01
    1679,    8.166667e+00,    2.333333e+00,    2.916667e+01
    1680,    8.166667e+00,    2.333333e+00,    2.800000e+01
    1681,    8.166667e+00,    2.333333e+00,    2.683333e+01
    1682,    8.166667e+00,    2.333333e+00,    2.566667e+01
    1683,    8.166667e+00,    2.333333e+00,    2.450000e+01
    1684,    8.166667e+00,    2.333333e+00,    2.333333e+01
    1685,    8.166667e+00,    2.333333e+00,    2.216667e+01
    1686,    8.166667e+00,    2.333333e+00,    2.100000e+01
    1687,    8.166667e+00,    2.333333e+00,    1.983333e+01
    1688,    8.166667e+00,    2.333333e+00,    1.866667e+01
    1689,    8.166667e+00,    2.333333e+00,    1.750000e+01
    1690,    8.166667e+00,    2.333333e+00,    1.633333e+01
    1691,    8.166667e+00,    2.333333e+00,    1.516667e+01
    1692,    8.166667e+00,    3.500000e+00,    3.383333e+01
    1693,    8.166667e+00,    3.500000e+00,    3.266667e+01
    1694,    8.166667e+00,    3.500000e+00,    3.150000e+01
    1695,    8.166667e+00,    3.500000e+00,    3.033333e+01
    1696,    8.166667e+00,    3.500000e+00,    2.916667e+01
    1697,    8.166667e+00,    3.500000e+00,    2.800000e+01
    1698,    8.166667e+00,    3.500000e+00,    2.683333e+01
    1699,    8.166667e+00,    3.500000e+00,    2.566667e+01
    1700,    8.166667e+00,    3.500000e+00,    2.450000e+01
    1701,    8.166667e+00,    3.500000e+00,    2.333333e+01
    1702,    8.166667e+00,    3.500000e+00,    2.216667e+01
    1703,    8.166667e+00,    3.500000e+00,    2.100000e+01
    1704,    8.166667e+00,    3.500000e+00,    1.983333e+01
    1705,    8.166667e+00,    3.500000e+00,    1.866667e+01
    1706,    8.166667e+00,    3.500000e+00,    1.750000e+01
    1707,    8.166667e+00,    3.500000e+00,    1.633333e+01
    1708,    8.166667e+00,    3.500000e+00,    1.516667e+01
    1709,    8.166667e+00,    4.666667e+00,    3.383333e+01
    1710,    8.166667e+00,    4.666667e+00,    3.266667e+01
    1711,    8.166667e+00,    4.666667e+00,    3.150000e+01
    1712,    8.166667e+00,    4.666667e+00,    3.033333e+01
    1713,    8.166667e+00,    4.666667e+00,    2.916667e+01
    1714,    8.166667e+00,    4.666667e+00,    2.800000e+01
    1715,    8.166667e+00,    4.666667e+00,    2.683333e+01
    1716,    8.166667e+00,    4.666667e+00,    2.566667e+01
    1717,    8.166667e+00,    4.666667e+00,    2.450000e+01
    1718,    8.166667e+00,    4.666667e+00,    2.333333e+01
    1719,    8.166667e+00,    4.666667e+00,    2.216667e+01
    1720,    8.166667e+00,    4.666667e+00,    2.100000e+01
    1721,    8.166667e+00,    4.666667e+00,    1.983333e+01
    1722,    8.166667e+00,    4.666667e+00,    1.866667e+01
    1723,    8.166667e+00,    4.666667e+00,    1.750000e+01
    1724,    8.166667e+00,    4.666667e+00,    1.633333e+01
    1725,    8.166667e+00,    4.666667e+00,    1.516667e+01
    1726,    8.166667e+00,    5.833333e+00,    3.383333e+01
    1727,    8.166667e+00,    5.833333e+00,    3.266667e+01
    1728,    8.166667e+00,    5.833333e+00,    3.150000e+01
    1729,    8.166667e+00,    5.833333e+00,    3.033333e+01
    1730,    8.166667e+00,    5.833333e+00,    2.916667e+01
    1731,    8.166667e+00,    5.833333e+00,    2.800000e+01
    1732,    8.166667e+00,    5.833333e+00,    2.683333e+01
    1733,    8.166667e+00,    5.833333e+00,    2.566667e+01
    1734,    8.166667e+00,    5.833333e+00,    2.450000e+01
    1735,    8.166667e+00,    5.833333e+00,    2.333333e+01
    1736,    8.166667e+00,    5.833333e+00,    2.216667e+01
    1737,    8.166667e+00,    5.833333e+00,    2.100000e+01
    1738,    8.166667e+00,    5.833333e+00,    1.983333e+01
    1739,    8.166667e+00,    5.833333e+00,    1.866667e+01
    1740,    8.166667e+00,    5.833333e+00,    1.750000e+01
    1741,    8.166667e+00,    5.833333e+00,    1.633333e+01
    1742,    8.166667e+00,    5.833333e+00,    1.516667e+01
    1743,    8.166667e+00,    7.000000e+00,    3.383333e+01
    1744,    8.166667e+00,    7.000000e+00,    3.266667e+01
    1745,    8.166667e+00,    7.000000e+00,    3.150000e+01
    1746,    8.166667e+00,    7.000000e+00,    3.033333e+01
    1747,    8.166667e+00,    7.000000e+00,    2.916667e+01
    1748,    8.166667e+00,    7.000000e+00,    2.800000e+01
    1749,    8.166667e+00,    7.000000e+00,    2.683333e+01
    1750,    8.166667e+00,    7.000000e+00,    2.566667e+01
    1751,    8.166667e+00,    7.000000e+00,    2.450000e+01
    1752,    8.166667e+00,    7.000000e+00,    2.333333e+01
    1753,    8.166667e+00,    7.000000e+00,    2.216667e+01
    1754,    8.166667e+00,    7.000000e+00,    2.100000e+01
    1755,    8.166667e+00,    7.000000e+00,    1.983333e+01
    1756,    8.166667e+00,    7.000000e+00,    1.866667e+01
    1757,    8.166667e+00,    7.000000e+00,    1.750000e+01
    1758,    8.166667e+00,    7.000000e+00,    1.633333e+01
    1759,    8.166667e+00,    7.000000e+00,    1.516667e+01
    1760,    8.166667e+00,    8.166667e+00,    3.383333e+01
    1761,    8.166667e+00,    8.166667e+00,    3.266667e+01
    1762,    8.166667e+00,    8.166667e+00,    3.150000e+01
    1763,    8.166667e+00,    8.166667e+00,    3.033333e+01
    1764,    8.166667e+00,    8.166667e+00,    2.916667e+01
    1765,    8.166667e+00,    8.166667e+00,    2.800000e+01
    1766,    8.166667e+00,    8.166667e+00,    2.683333e+01
    1767,    8.166667e+00,    8.166667e+00,    2.566667e+01
    1768,    8.166667e+00,    8.166667e+00,    2.450000e+01
    1769,    8.166667e+00,    8.166667e+00,    2.333333e+01
    1770,    8.166667e+00,    8.166667e+00,    2.216667e+01
    1771,    8.166667e+00,    8.166667e+00,    2.100000e+01
    1772,    8.166667e+00,    8.166667e+00,    1.983333e+01
    1773,    8.166667e+00,    8.166667e+00,    1.866667e+01
    1774,    8.166667e+00,    8.166667e+00,    1.750000e+01
    1775,    8.166667e+00,    8.166667e+00,    1.633333e+01
    1776,    8.166667e+00,    8.166667e+00,    1.516667e+01
    1777,    8.166667e+00,    9.333333e+00,    3.383333e+01
    1778,    8.166667e+00,    9.333333e+00,    3.266667e+01
    1779,    8.166667e+00,    9.333333e+00,    3.150000e+01
    1780,    8.166667e+00,    9.333333e+00,    3.033333e+01
    1781,    8.166667e+00,    9.333333e+00,    2.916667e+01
    1782,    8.166667e+00,    9.333333e+00,    2.800000e+01
    1783,    8.166667e+00,    9.333333e+00,    2.683333e+01
    1784,    8.166667e+00,    9.333333e+00,    2.566667e+01
    1785,    8.166667e+00,    9.333333e+00,    2.450000e+01
    1786,    8.166667e+00,    9.333333e+00,    2.333333e+01
    1787,    8.166667e+00,    9.333333e+00,    2.216667e+01
    1788,    8.166667e+00,    9.333333e+00,    2.100000e+01
    1789,    8.166667e+00,    9.333333e+00,    1.983333e+01
    1790,    8.166667e+00,    9.333333e+00,    1.866667e+01
    1791,    8.166667e+00,    9.333333e+00,    1.750000e+01
    1792,    8.166667e+00,    9.333333e+00,    1.633333e+01
    1793,    8.166667e+00,    9.333333e+00,    1.516667e+01
    1794,    8.166667e+00,    1.050000e+01,    3.383333e+01
    1795,    8.166667e+00,    1.050000e+01,    3.266667e+01
    1796,    8.166667e+00,    1.050000e+01,    3.150000e+01
    1797,    8.166667e+00,    1.050000e+01,    3.033333e+01
    1798,    8.166667e+00,    1.050000e+01,    2.916667e+01
    1799,    8.166667e+00,    1.050000e+01,    2.800000e+01
    1800,    8.166667e+00,    1.050000e+01,    2.683333e+01
    1801,    8.166667e+00,    1.050000e+01,    2.566667e+01
    1802,    8.166667e+00,    1.050000e+01,    2.450000e+01
    1803,    8.166667e+00,    1.050000e+01,    2.333333e+01
    1804,    8.166667e+00,    1.050000e+01,    2.216667e+01
    1805,    8.166667e+00,    1.050000e+01,    2.100000e+01
    1806,    8.166667e+00,    1.050000e+01,    1.983333e+01
    1807,    8.166667e+00,    1.050000e+01,    1.866667e+01
    1808,    8.166667e+00,    1.050000e+01,    1.750000e+01
    1809,    8.166667e+00,    1.050000e+01,    1.633333e+01
    1810,    8.166667e+00,    1.050000e+01,    1.516667e+01
    1811,    8.166667e+00,    1.166667e+01,    3.383333e+01
    1812,    8.166667e+00,    1.166667e+01,    3.266667e+01
    1813,    8.166667e+00,    1.166667e+01,    3.150000e+01
    1814,    8.166667e+00,    1.166667e+01,    3.033333e+01
    1815,    8.166667e+00,    1.166667e+01,    2.916667e+01
    1816,    8.166667e+00,    1.166667e+01,    2.800000e+01
    1817,    8.166667e+00,    1.166667e+01,    2.683333e+01
    1818,    8.166667e+00,    1.166667e+01,    2.566667e+01
    1819,    8.166667e+00,    1.166667e+01,    2.450000e+01
    1820,    8.166667e+00,    1.166667e+01,    2.333333e+01
    1821,    8.166667e+00,    1.166667e+01,    2.216667e+01
    1822,    8.166667e+00,    1.166667e+01,    2.100000e+01
    1823,    8.166667e+00,    1.166667e+01,    1.983333e+01
    1824,    8.166667e+00,    1.166667e+01,    1.866667e+01
    1825,    8.166667e+00,    1.166667e+01,    1.750000e+01
    1826,    8.166667e+00,    1.166667e+01,    1.633333e+01
    1827,    8.166667e+00,    1.166667e+01,    1.516667e+01
    1828,    8.166667e+00,    1.283333e+01,    3.383333e+01
    1829,    8.166667e+00,    1.283333e+01,    3.266667e+01
    1830,    8.166667e+00,    1.283333e+01,    3.150000e+01
    1831,    8.166667e+00,    1.283333e+01,    3.033333e+01
    1832,    8.166667e+00,    1.283333e+01,    2.916667e+01
    1833,    8.166667e+00,    1.283333e+01,    2.800000e+01
    1834,    8.166667e+00,    1.283333e+01,    2.683333e+01
    1835,    8.166667e+00,    1.283333e+01,    2.566667e+01
    1836,    8.166667e+00,    1.283333e+01,    2.450000e+01
    1837,    8.166667e+00,    1.283333e+01,    2.333333e+01
    1838,    8.166667e+00,    1.283333e+01,    2.216667e+01
    1839,    8.166667e+00,    1.283333e+01,    2.100000e+01
    1840,    8.166667e+00,    1.283333e+01,    1.983333e+01
    1841,    8.166667e+00,    1.283333e+01,    1.866667e+01
    1842,    8.166667e+00,    1.283333e+01,    1.750000e+01
    1843,    8.166667e+00,    1.283333e+01,    1.633333e+01
    1844,    8.166667e+00,    1.283333e+01,    1.516667e+01
    1845,    9.333333e+00,    1.166667e+00,    3.383333e+01
    1846,    9.333333e+00,    1.166667e+00,    3.266667e+01
    1847,    9.333333e+00,    1.166667e+00,    3.150000e+01
    1848,    9.333333e+00,    1.166667e+00,    3.033333e+01
    1849,    9.333333e+00,    1.166667e+00,    2.916667e+01
    1850,    9.333333e+00,    1.166667e+00,    2.800000e+01
    1851,    9.333333e+00,    1.166667e+00,    2.683333e+01
    1852,    9.333333e+00,    1.166667e+00,    2.566667e+01
    1853,    9.333333e+00,    1.166667e+00,    2.450000e+01
    1854,    9.333333e+00,    1.166667e+00,    2.333333e+01
    1855,    9.333333e+00,    1.166667e+00,    2.216667e+01
    1856,    9.333333e+00,    1.166667e+00,    2.100000e+01
    1857,    9.333333e+00,    1.166667e+00,    1.983333e+01
    1858,    9.333333e+00,    1.166667e+00,    1.866667e+01
    1859,    9.333333e+00,    1.166667e+00,    1.750000e+01
    1860,    9.333333e+00,    1.166667e+00,    1.633333e+01
    1861,    9.333333e+00,    1.166667e+00,    1.516667e+01
    1862,    9.333333e+00,    2.333333e+00,    3.383333e+01
    1863,    9.333333e+00,    2.333333e+00,    3.266667e+01
    1864,    9.333333e+00,    2.333333e+00,    3.150000e+01
    1865,    9.333333e+00,    2.333333e+00,    3.033333e+01
    1866,    9.333333e+00,    2.333333e+00,    2.916667e+01
    1867,    9.333333e+00,    2.333333e+00,    2.800000e+01
    1868,    9.333333e+00,    2.333333e+00,    2.683333e+01
    1869,    9.333333e+00,    2.333333e+00,    2.566667e+01
    1870,    9.333333e+00,    2.333333e+00,    2.450000e+01
    1871,    9.333333e+00,    2.333333e+00,    2.333333e+01
    1872,    9.333333e+00,    2.333333e+00,    2.216667e+01
    1873,    9.333333e+00,    2.333333e+00,    2.100000e+01
    1874,    9.333333e+00,    2.333333e+00,    1.983333e+01
    1875,    9.333333e+00,    2.333333e+00,    1.866667e+01
    1876,    9.333333e+00,    2.333333e+00,    1.750000e+01
    1877,    9.333333e+00,    2.333333e+00,    1.633333e+01
    1878,    9.333333e+00,    2.333333e+00,    1.516667e+01
    1879,    9.333333e+00,    3.500000e+00,    3.383333e+01
    1880,    9.333333e+00,    3.500000e+00,    3.266667e+01
    1881,    9.333333e+00,    3.500000e+00,    3.150000e+01
    1882,    9.333333e+00,    3.500000e+00,    3.033333e+01
    1883,    9.333333e+00,    3.500000e+00,    2.916667e+01
    1884,    9.333333e+00,    3.500000e+00,    2.800000e+01
    1885,    9.333333e+00,    3.500000e+00,    2.683333e+01
    1886,    9.333333e+00,    3.500000e+00,    2.566667e+01
    1887,    9.333333e+00,    3.500000e+00,    2.450000e+01
    1888,    9.333333e+00,    3.500000e+00,    2.333333e+01
    1889,    9.333333e+00,    3.500000e+00,    2.216667e+01
    1890,    9.333333e+00,    3.500000e+00,    2.100000e+01
    1891,    9.333333e+00,    3.500000e+00,    1.983333e+01
    1892,    9.333333e+00,    3.500000e+00,    1.866667e+01
    1893,    9.333333e+00,    3.500000e+00,    1.750000e+01
    1894,    9.333333e+00,    3.500000e+00,    1.633333e+01
    1895,    9.333333e+00,    3.500000e+00,    1.516667e+01
    1896,    9.333333e+00,    4.666667e+00,    3.383333e+01
    1897,    9.333333e+00,    4.666667e+00,    3.266667e+01
    1898,    9.333333e+00,    4.666667e+00,    3.150000e+01
    1899,    9.333333e+00,    4.666667e+00,    3.033333e+01
    1900,    9.333333e+00,    4.666667e+00,    2.916667e+01
    1901,    9.333333e+00,    4.666667e+00,    2.800000e+01
    1902,    9.333333e+00,    4.666667e+00,    2.683333e+01
    1903,    9.333333e+00,    4.666667e+00,    2.566667e+01
    1904,    9.333333e+00,    4.666667e+00,    2.450000e+01
    1905,    9.333333e+00,    4.666667e+00,    2.333333e+01
    1906,    9.333333e+00,    4.666667e+00,    2.216667e+01
    1907,    9.333333e+00,    4.666667e+00,    2.100000e+01
    1908,    9.333333e+00,    4.666667e+00,    1.983333e+01
    1909,    9.333333e+00,    4.666667e+00,    1.866667e+01
    1910,    9.333333e+00,    4.666667e+00,    1.750000e+01
    1911,    9.333333e+00,    4.666667e+00,    1.633333e+01
    1912,    9.333333e+00,    4.666667e+00,    1.516667e+01
    1913,    9.333333e+00,    5.833333e+00,    3.383333e+01
    1914,    9.333333e+00,    5.833333e+00,    3.266667e+01
    1915,    9.333333e+00,    5.833333e+00,    3.150000e+01
    1916,    9.333333e+00,    5.833333e+00,    3.033333e+01
    1917,    9.333333e+00,    5.833333e+00,    2.916667e+01
    1918,    9.333333e+00,    5.833333e+00,    2.800000e+01
    1919,    9.333333e+00,    5.833333e+00,    2.683333e+01
    1920,    9.333333e+00,    5.833333e+00,    2.566667e+01
    1921,    9.333333e+00,    5.833333e+00,    2.450000e+01
    1922,    9.333333e+00,    5.833333e+00,    2.333333e+01
    1923,    9.333333e+00,    5.833333e+00,    2.216667e+01
    1924,    9.333333e+00,    5.833333e+00,    2.100000e+01
    1925,    9.333333e+00,    5.833333e+00,    1.983333e+01
    1926,    9.333333e+00,    5.833333e+00,    1.866667e+01
    1927,    9.333333e+00,    5.833333e+00,    1.750000e+01
    1928,    9.333333e+00,    5.833333e+00,    1.633333e+01
    1929,    9.333333e+00,    5.833333e+00,    1.516667e+01
    1930,    9.333333e+00,    7.000000e+00,    3.383333e+01
    1931,    9.333333e+00,    7.000000e+00,    3.266667e+01
    1932,    9.333333e+00,    7.000000e+00,    3.150000e+01
    1933,    9.333333e+00,    7.000000e+00,    3.033333e+01
    1934,    9.333333e+00,    7.000000e+00,    2.916667e+01
    1935,    9.333333e+00,    7.000000e+00,    2.800000e+01
    1936,    9.333333e+00,    7.000000e+00,    2.683333e+01
    1937,    9.333333e+00,    7.000000e+00,    2.566667e+01
    1938,    9.333333e+00,    7.000000e+00,    2.450000e+01
    1939,    9.333333e+00,    7.000000e+00,    2.333333e+01
    1940,    9.333333e+00,    7.000000e+00,    2.216667e+01
    1941,    9.333333e+00,    7.000000e+00,    2.100000e+01
    1942,    9.333333e+00,    7.000000e+00,    1.983333e+01
    1943,    9.333333e+00,    7.000000e+00,    1.866667e+01
    1944,    9.333333e+00,    7.000000e+00,    1.750000e+01
    1945,    9.333333e+00,    7.000000e+00,    1.633333e+01
    1946,    9.333333e+00,    7.000000e+00,    1.516667e+01
    1947,    9.333333e+00,    8.166667e+00,    3.383333e+01
    1948,    9.333333e+00,    8.166667e+00,    3.266667e+01
    1949,    9.333333e+00,    8.166667e+00,    3.150000e+01
    1950,    9.333333e+00,    8.166667e+00,    3.033333e+01
    1951,    9.333333e+00,    8.166667e+00,    2.916667e+01
    1952,    9.333333e+00,    8.166667e+00,    2.800000e+01
    1953,    9.333333e+00,    8.166667e+00,    2.683333e+01
    1954,    9.333333e+00,    8.166667e+00,    2.566667e+01
    1955,    9.333333e+00,    8.166667e+00,    2.450000e+01
    1956,    9.333333e+00,    8.166667e+00,    2.333333e+01
    1957,    9.333333e+00,    8.166667e+00,    2.216667e+01
    1958,    9.333333e+00,    8.166667e+00,    2.100000e+01
    1959,    9.333333e+00,    8.166667e+00,    1.983333e+01
    1960,    9.333333e+00,    8.166667e+00,    1.866667e+01
    1961,    9.333333e+00,    8.166667e+00,    1.750000e+01
    1962,    9.333333e+00,    8.166667e+00,    1.633333e+01
    1963,    9.333333e+00,    8.166667e+00,    1.516667e+01
    1964,    9.333333e+00,    9.333333e+00,    3.383333e+01
    1965,    9.333333e+00,    9.333333e+00,    3.266667e+01
    1966,    9.333333e+00,    9.333333e+00,    3.150000e+01
    1967,    9.333333e+00,    9.333333e+00,    3.033333e+01
    1968,    9.333333e+00,    9.333333e+00,    2.916667e+01
    1969,    9.333333e+00,    9.333333e+00,    2.800000e+01
    1970,    9.333333e+00,    9.333333e+00,    2.683333e+01
    1971,    9.333333e+00,    9.333333e+00,    2.566667e+01
    1972,    9.333333e+00,    9.333333e+00,    2.450000e+01
    1973,    9.333333e+00,    9.333333e+00,    2.333333e+01
    1974,    9.333333e+00,    9.333333e+00,    2.216667e+01
    1975,    9.333333e+00,    9.333333e+00,    2.100000e+01
    1976,    9.333333e+00,    9.333333e+00,    1.983333e+01
    1977,    9.333333e+00,    9.333333e+00,    1.866667e+01
    1978,    9.333333e+00,    9.333333e+00,    1.750000e+01
    1979,    9.333333e+00,    9.333333e+00,    1.633333e+01
    1980,    9.333333e+00,    9.333333e+00,    1.516667e+01
    1981,    9.333333e+00,    1.050000e+01,    3.383333e+01
    1982,    9.333333e+00,    1.050000e+01,    3.266667e+01
    1983,    9.333333e+00,    1.050000e+01,    3.150000e+01
    1984,    9.333333e+00,    1.050000e+01,    3.033333e+01
    1985,    9.333333e+00,    1.050000e+01,    2.916667e+01
    1986,    9.333333e+00,    1.050000e+01,    2.800000e+01
    1987,    9.333333e+00,    1.050000e+01,    2.683333e+01
    1988,    9.333333e+00,    1.050000e+01,    2.566667e+01
    1989,    9.333333e+00,    1.050000e+01,    2.450000e+01
    1990,    9.333333e+00,    1.050000e+01,    2.333333e+01
    1991,    9.333333e+00,    1.050000e+01,    2.216667e+01
    1992,    9.333333e+00,    1.050000e+01,    2.100000e+01
    1993,    9.333333e+00,    1.050000e+01,    1.983333e+01
    1994,    9.333333e+00,    1.050000e+01,    1.866667e+01
    1995,    9.333333e+00,    1.050000e+01,    1.750000e+01
    1996,    9.333333e+00,    1.050000e+01,    1.633333e+01
    1997,    9.333333e+00,    1.050000e+01,    1.516667e+01
    1998,    9.333333e+00,    1.166667e+01,    3.383333e+01
    1999,    9.333333e+00,    1.166667e+01,    3.266667e+01
    2000,    9.333333e+00,    1.166667e+01,    3.150000e+01
    2001,    9.333333e+00,    1.166667e+01,    3.033333e+01
    2002,    9.333333e+00,    1.166667e+01,    2.916667e+01
    2003,    9.333333e+00,    1.166667e+01,    2.800000e+01
    2004,    9.333333e+00,    1.166667e+01,    2.683333e+01
    2005,    9.333333e+00,    1.166667e+01,    2.566667e+01
    2006,    9.333333e+00,    1.166667e+01,    2.450000e+01
    2007,    9.333333e+00,    1.166667e+01,    2.333333e+01
    2008,    9.333333e+00,    1.166667e+01,    2.216667e+01
    2009,    9.333333e+00,    1.166667e+01,    2.100000e+01
    2010,    9.333333e+00,    1.166667e+01,    1.983333e+01
    2011,    9.333333e+00,    1.166667e+01,    1.866667e+01
    2012,    9.333333e+00,    1.166667e+01,    1.750000e+01
    2013,    9.333333e+00,    1.166667e+01,    1.633333e+01
    2014,    9.333333e+00,    1.166667e+01,    1.516667e+01
    2015,    9.333333e+00,    1.283333e+01,    3.383333e+01
    2016,    9.333333e+00,    1.283333e+01,    3.266667e+01
    2017,    9.333333e+00,    1.283333e+01,    3.150000e+01
    2018,    9.333333e+00,    1.283333e+01,    3.033333e+01
    2019,    9.333333e+00,    1.283333e+01,    2.916667e+01
    2020,    9.333333e+00,    1.283333e+01,    2.800000e+01
    2021,    9.333333e+00,    1.283333e+01,    2.683333e+01
    2022,    9.333333e+00,    1.283333e+01,    2.566667e+01
    2023,    9.333333e+00,    1.283333e+01,    2.450000e+01
    2024,    9.333333e+00,    1.283333e+01,    2.333333e+01
    2025,    9.333333e+00,    1.283333e+01,    2.216667e+01
    2026,    9.333333e+00,    1.283333e+01,    2.100000e+01
    2027,    9.333333e+00,    1.283333e+01,    1.983333e+01
    2028,    9.333333e+00,    1.283333e+01,    1.866667e+01
    2029,    9.333333e+00,    1.283333e+01,    1.750000e+01
    2030,    9.333333e+00,    1.283333e+01,    1.633333e+01
    2031,    9.333333e+00,    1.283333e+01,    1.516667e+01
    2032,    1.050000e+01,    1.166667e+00,    3.383333e+01
    2033,    1.050000e+01,    1.166667e+00,    3.266667e+01
    2034,    1.050000e+01,    1.166667e+00,    3.150000e+01
    2035,    1.050000e+01,    1.166667e+00,    3.033333e+01
    2036,    1.050000e+01,    1.166667e+00,    2.916667e+01
    2037,    1.050000e+01,    1.166667e+00,    2.800000e+01
    2038,    1.050000e+01,    1.166667e+00,    2.683333e+01
    2039,    1.050000e+01,    1.166667e+00,    2.566667e+01
    2040,    1.050000e+01,    1.166667e+00,    2.450000e+01
    2041,    1.050000e+01,    1.166667e+00,    2.333333e+01
    2042,    1.050000e+01,    1.166667e+00,    2.216667e+01
    2043,    1.050000e+01,    1.166667e+00,    2.100000e+01
    2044,    1.050000e+01,    1.166667e+00,    1.983333e+01
    2045,    1.050000e+01,    1.166667e+00,    1.866667e+01
    2046,    1.050000e+01,    1.166667e+00,    1.750000e+01
    2047,    1.050000e+01,    1.166667e+00,    1.633333e+01
    2048,    1.050000e+01,    1.166667e+00,    1.516667e+01
    2049,    1.050000e+01,    2.333333e+00,    3.383333e+01
    2050,    1.050000e+01,    2.333333e+00,    3.266667e+01
    2051,    1.050000e+01,    2.333333e+00,    3.150000e+01
    2052,    1.050000e+01,    2.333333e+00,    3.033333e+01
    2053,    1.050000e+01,    2.333333e+00,    2.916667e+01
    2054,    1.050000e+01,    2.333333e+00,    2.800000e+01
    2055,    1.050000e+01,    2.333333e+00,    2.683333e+01
    2056,    1.050000e+01,    2.333333e+00,    2.566667e+01
    2057,    1.050000e+01,    2.333333e+00,    2.450000e+01
    2058,    1.050000e+01,    2.333333e+00,    2.333333e+01
    2059,    1.050000e+01,    2.333333e+00,    2.216667e+01
    2060,    1.050000e+01,    2.333333e+00,    2.100000e+01
    2061,    1.050000e+01,    2.333333e+00,    1.983333e+01
    2062,    1.050000e+01,    2.333333e+00,    1.866667e+01
    2063,    1.050000e+01,    2.333333e+00,    1.750000e+01
    2064,    1.050000e+01,    2.333333e+00,    1.633333e+01
    2065,    1.050000e+01,    2.333333e+00,    1.516667e+01
    2066,    1.050000e+01,    3.500000e+00,    3.383333e+01
    2067,    1.050000e+01,    3.500000e+00,    3.266667e+01
    2068,    1.050000e+01,    3.500000e+00,    3.150000e+01
    2069,    1.050000e+01,    3.500000e+00,    3.033333e+01
    2070,    1.050000e+01,    3.500000e+00,    2.916667e+01
    2071,    1.050000e+01,    3.500000e+00,    2.800000e+01
    2072,    1.050000e+01,    3.500000e+00,    2.683333e+01
    2073,    1.050000e+01,    3.500000e+00,    2.566667e+01
    2074,    1.050000e+01,    3.500000e+00,    2.450000e+01
    2075,    1.050000e+01,    3.500000e+00,    2.333333e+01
    2076,    1.050000e+01,    3.500000e+00,    2.216667e+01
    2077,    1.050000e+01,    3.500000e+00,    2.100000e+01
    2078,    1.050000e+01,    3.500000e+00,    1.983333e+01
    2079,    1.050000e+01,    3.500000e+00,    1.866667e+01
    2080,    1.050000e+01,    3.500000e+00,    1.750000e+01
    2081,    1.050000e+01,    3.500000e+00,    1.633333e+01
    2082,    1.050000e+01,    3.500000e+00,    1.516667e+01
    2083,    1.050000e+01,    4.666667e+00,    3.383333e+01
    2084,    1.050000e+01,    4.666667e+00,    3.266667e+01
    2085,    1.050000e+01,    4.666667e+00,    3.150000e+01
    2086,    1.050000e+01,    4.666667e+00,    3.033333e+01
    2087,    1.050000e+01,    4.666667e+00,    2.916667e+01
    2088,    1.050000e+01,    4.666667e+00,    2.800000e+01
    2089,    1.050000e+01,    4.666667e+00,    2.683333e+01
    2090,    1.050000e+01,    4.666667e+00,    2.566667e+01
    2091,    1.050000e+01,    4.666667e+00,    2.450000e+01
    2092,    1.050000e+01,    4.666667e+00,    2.333333e+01
    2093,    1.050000e+01,    4.666667e+00,    2.216667e+01
    2094,    1.050000e+01,    4.666667e+00,    2.100000e+01
    2095,    1.050000e+01,    4.666667e+00,    1.983333e+01
    2096,    1.050000e+01,    4.666667e+00,    1.866667e+01
    2097,    1.050000e+01,    4.666667e+00,    1.750000e+01
    2098,    1.050000e+01,    4.666667e+00,    1.633333e+01
    2099,    1.050000e+01,    4.666667e+00,    1.516667e+01
    2100,    1.050000e+01,    5.833333e+00,    3.383333e+01
    2101,    1.050000e+01,    5.833333e+00,    3.266667e+01
    2102,    1.050000e+01,    5.833333e+00,    3.150000e+01
    2103,    1.050000e+01,    5.833333e+00,    3.033333e+01
    2104,    1.050000e+01,    5.833333e+00,    2.916667e+01
    2105,    1.050000e+01,    5.833333e+00,    2.800000e+01
    2106,    1.050000e+01,    5.833333e+00,    2.683333e+01
    2107,    1.050000e+01,    5.833333e+00,    2.566667e+01
    2108,    1.050000e+01,    5.833333e+00,    2.450000e+01
    2109,    1.050000e+01,    5.833333e+00,    2.333333e+01
    2110,    1.050000e+01,    5.833333e+00,    2.216667e+01
    2111,    1.050000e+01,    5.833333e+00,    2.100000e+01
    2112,    1.050000e+01,    5.833333e+00,    1.983333e+01
    2113,    1.050000e+01,    5.833333e+00,    1.866667e+01
    2114,    1.050000e+01,    5.833333e+00,    1.750000e+01
    2115,    1.050000e+01,    5.833333e+00,    1.633333e+01
    2116,    1.050000e+01,    5.833333e+00,    1.516667e+01
    2117,    1.050000e+01,    7.000000e+00,    3.383333e+01
    2118,    1.050000e+01,    7.000000e+00,    3.266667e+01
    2119,    1.050000e+01,    7.000000e+00,    3.150000e+01
    2120,    1.050000e+01,    7.000000e+00,    3.033333e+01
    2121,    1.050000e+01,    7.000000e+00,    2.916667e+01
    2122,    1.050000e+01,    7.000000e+00,    2.800000e+01
    2123,    1.050000e+01,    7.000000e+00,    2.683333e+01
    2124,    1.050000e+01,    7.000000e+00,    2.566667e+01
    2125,    1.050000e+01,    7.000000e+00,    2.450000e+01
    2126,    1.050000e+01,    7.000000e+00,    2.333333e+01
    2127,    1.050000e+01,    7.000000e+00,    2.216667e+01
    2128,    1.050000e+01,    7.000000e+00,    2.100000e+01
    2129,    1.050000e+01,    7.000000e+00,    1.983333e+01
    2130,    1.050000e+01,    7.000000e+00,    1.866667e+01
    2131,    1.050000e+01,    7.000000e+00,    1.750000e+01
    2132,    1.050000e+01,    7.000000e+00,    1.633333e+01
    2133,    1.050000e+01,    7.000000e+00,    1.516667e+01
    2134,    1.050000e+01,    8.166667e+00,    3.383333e+01
    2135,    1.050000e+01,    8.166667e+00,    3.266667e+01
    2136,    1.050000e+01,    8.166667e+00,    3.150000e+01
    2137,    1.050000e+01,    8.166667e+00,    3.033333e+01
    2138,    1.050000e+01,    8.166667e+00,    2.916667e+01
    2139,    1.050000e+01,    8.166667e+00,    2.800000e+01
    2140,    1.050000e+01,    8.166667e+00,    2.683333e+01
    2141,    1.050000e+01,    8.166667e+00,    2.566667e+01
    2142,    1.050000e+01,    8.166667e+00,    2.450000e+01
    2143,    1.050000e+01,    8.166667e+00,    2.333333e+01
    2144,    1.050000e+01,    8.166667e+00,    2.216667e+01
    2145,    1.050000e+01,    8.166667e+00,    2.100000e+01
    2146,    1.050000e+01,    8.166667e+00,    1.983333e+01
    2147,    1.050000e+01,    8.166667e+00,    1.866667e+01
    2148,    1.050000e+01,    8.166667e+00,    1.750000e+01
    2149,    1.050000e+01,    8.166667e+00,    1.633333e+01
    2150,    1.050000e+01,    8.166667e+00,    1.516667e+01
    2151,    1.050000e+01,    9.333333e+00,    3.383333e+01
    2152,    1.050000e+01,    9.333333e+00,    3.266667e+01
    2153,    1.050000e+01,    9.333333e+00,    3.150000e+01
    2154,    1.050000e+01,    9.333333e+00,    3.033333e+01
    2155,    1.050000e+01,    9.333333e+00,    2.916667e+01
    2156,    1.050000e+01,    9.333333e+00,    2.800000e+01
    2157,    1.050000e+01,    9.333333e+00,    2.683333e+01
    2158,    1.050000e+01,    9.333333e+00,    2.566667e+01
    2159,    1.050000e+01,    9.333333e+00,    2.450000e+01
    2160,    1.050000e+01,    9.333333e+00,    2.333333e+01
    2161,    1.050000e+01,    9.333333e+00,    2.216667e+01
    2162,    1.050000e+01,    9.333333e+00,    2.100000e+01
    2163,    1.050000e+01,    9.333333e+00,    1.983333e+01
    2164,    1.050000e+01,    9.333333e+00,    1.866667e+01
    2165,    1.050000e+01,    9.333333e+00,    1.750000e+01
    2166,    1.050000e+01,    9.333333e+00,    1.633333e+01
    2167,    1.050000e+01,    9.333333e+00,    1.516667e+01
    2168,    1.050000e+01,    1.050000e+01,    3.383333e+01
    2169,    1.050000e+01,    1.050000e+01,    3.266667e+01
    2170,    1.050000e+01,    1.050000e+01,    3.150000e+01
    2171,    1.050000e+01,    1.050000e+01,    3.033333e+01
    2172,    1.050000e+01,    1.050000e+01,    2.916667e+01
    2173,    1.050000e+01,    1.050000e+01,    2.800000e+01
    2174,    1.050000e+01,    1.050000e+01,    2.683333e+01
    2175,    1.050000e+01,    1.050000e+01,    2.566667e+01
    2176,    1.050000e+01,    1.050000e+01,    2.450000e+01
    2177,    1.050000e+01,    1.050000e+01,    2.333333e+01
    2178,    1.050000e+01,    1.050000e+01,    2.216667e+01
    2179,    1.050000e+01,    1.050000e+01,    2.100000e+01
    2180,    1.050000e+01,    1.050000e+01,    1.983333e+01
    2181,    1.050000e+01,    1.050000e+01,    1.866667e+01
    2182,    1.050000e+01,    1.050000e+01,    1.750000e+01
    2183,    1.050000e+01,    1.050000e+01,    1.633333e+01
    2184,    1.050000e+01,    1.050000e+01,    1.516667e+01
    2185,    1.050000e+01,    1.166667e+01,    3.383333e+01
    2186,    1.050000e+01,    1.166667e+01,    3.266667e+01
    2187,    1.050000e+01,    1.166667e+01,    3.150000e+01
    2188,    1.050000e+01,    1.166667e+01,    3.033333e+01
    2189,    1.050000e+01,    1.166667e+01,    2.916667e+01
    2190,    1.050000e+01,    1.166667e+01,    2.800000e+01
    2191,    1.050000e+01,    1.166667e+01,    2.683333e+01
    2192,    1.050000e+01,    1.166667e+01,    2.566667e+01
    2193,    1.050000e+01,    1.166667e+01,    2.450000e+01
    2194,    1.050000e+01,    1.166667e+01,    2.333333e+01
    2195,    1.050000e+01,    1.166667e+01,    2.216667e+01
    2196,    1.050000e+01,    1.166667e+01,    2.100000e+01
    2197,    1.050000e+01,    1.166667e+01,    1.983333e+01
    2198,    1.050000e+01,    1.166667e+01,    1.866667e+01
    2199,    1.050000e+01,    1.166667e+01,    1.750000e+01
    2200,    1.050000e+01,    1.166667e+01,    1.633333e+01
    2201,    1.050000e+01,    1.166667e+01,    1.516667e+01
    2202,    1.050000e+01,    1.283333e+01,    3.383333e+01
    2203,    1.050000e+01,    1.283333e+01,    3.266667e+01
    2204,    1.050000e+01,    1.283333e+01,    3.150000e+01
    2205,    1.050000e+01,    1.283333e+01,    3.033333e+01
    2206,    1.050000e+01,    1.283333e+01,    2.916667e+01
    2207,    1.050000e+01,    1.283333e+01,    2.800000e+01
    2208,    1.050000e+01,    1.283333e+01,    2.683333e+01
    2209,    1.050000e+01,    1.283333e+01,    2.566667e+01
    2210,    1.050000e+01,    1.283333e+01,    2.450000e+01
    2211,    1.050000e+01,    1.283333e+01,    2.333333e+01
    2212,    1.050000e+01,    1.283333e+01,    2.216667e+01
    2213,    1.050000e+01,    1.283333e+01,    2.100000e+01
    2214,    1.050000e+01,    1.283333e+01,    1.983333e+01
    2215,    1.050000e+01,    1.283333e+01,    1.866667e+01
    2216,    1.050000e+01,    1.283333e+01,    1.750000e+01
    2217,    1.050000e+01,    1.283333e+01,    1.633333e+01
    2218,    1.050000e+01,    1.283333e+01,    1.516667e+01
    2219,    1.166667e+01,    1.166667e+00,    3.383333e+01
    2220,    1.166667e+01,    1.166667e+00,    3.266667e+01
    2221,    1.166667e+01,    1.166667e+00,    3.150000e+01
    2222,    1.166667e+01,    1.166667e+00,    3.033333e+01
    2223,    1.166667e+01,    1.166667e+00,    2.916667e+01
    2224,    1.166667e+01,    1.166667e+00,    2.800000e+01
    2225,    1.166667e+01,    1.166667e+00,    2.683333e+01
    2226,    1.166667e+01,    1.166667e+00,    2.566667e+01
    2227,    1.166667e+01,    1.166667e+00,    2.450000e+01
    2228,    1.166667e+01,    1.166667e+00,    2.333333e+01
    2229,    1.166667e+01,    1.166667e+00,    2.216667e+01
    2230,    1.166667e+01,    1.166667e+00,    2.100000e+01
    2231,    1.166667e+01,    1.166667e+00,    1.983333e+01
    2232,    1.166667e+01,    1.166667e+00,    1.866667e+01
    2233,    1.166667e+01,    1.166667e+00,    1.750000e+01
    2234,    1.166667e+01,    1.166667e+00,    1.633333e+01
    2235,    1.166667e+01,    1.166667e+00,    1.516667e+01
    2236,    1.166667e+01,    2.333333e+00,    3.383333e+01
    2237,    1.166667e+01,    2.333333e+00,    3.266667e+01
    2238,    1.166667e+01,    2.333333e+00,    3.150000e+01
    2239,    1.166667e+01,    2.333333e+00,    3.033333e+01
    2240,    1.166667e+01,    2.333333e+00,    2.916667e+01
    2241,    1.166667e+01,    2.333333e+00,    2.800000e+01
    2242,    1.166667e+01,    2.333333e+00,    2.683333e+01
    2243,    1.166667e+01,    2.333333e+00,    2.566667e+01
    2244,    1.166667e+01,    2.333333e+00,    2.450000e+01
    2245,    1.166667e+01,    2.333333e+00,    2.333333e+01
    2246,    1.166667e+01,    2.333333e+00,    2.216667e+01
    2247,    1.166667e+01,    2.333333e+00,    2.100000e+01
    2248,    1.166667e+01,    2.333333e+00,    1.983333e+01
    2249,    1.166667e+01,    2.333333e+00,    1.866667e+01
    2250,    1.166667e+01,    2.333333e+00,    1.750000e+01
    2251,    1.166667e+01,    2.333333e+00,    1.633333e+01
    2252,    1.166667e+01,    2.333333e+00,    1.516667e+01
    2253,    1.166667e+01,    3.500000e+00,    3.383333e+01
    2254,    1.166667e+01,    3.500000e+00,    3.266667e+01
    2255,    1.166667e+01,    3.500000e+00,    3.150000e+01
    2256,    1.166667e+01,    3.500000e+00,    3.033333e+01
    2257,    1.166667e+01,    3.500000e+00,    2.916667e+01
    2258,    1.166667e+01,    3.500000e+00,    2.800000e+01
    2259,    1.166667e+01,    3.500000e+00,    2.683333e+01
    2260,    1.166667e+01,    3.500000e+00,    2.566667e+01
    2261,    1.166667e+01,    3.500000e+00,    2.450000e+01
    2262,    1.166667e+01,    3.500000e+00,    2.333333e+01
    2263,    1.166667e+01,    3.500000e+00,    2.216667e+01
    2264,    1.166667e+01,    3.500000e+00,    2.100000e+01
    2265,    1.166667e+01,    3.500000e+00,    1.983333e+01
    2266,    1.166667e+01,    3.500000e+00,    1.866667e+01
    2267,    1.166667e+01,    3.500000e+00,    1.750000e+01
    2268,    1.166667e+01,    3.500000e+00,    1.633333e+01
    2269,    1.166667e+01,    3.500000e+00,    1.516667e+01
    2270,    1.166667e+01,    4.666667e+00,    3.383333e+01
    2271,    1.166667e+01,    4.666667e+00,    3.266667e+01
    2272,    1.166667e+01,    4.666667e+00,    3.150000e+01
    2273,    1.166667e+01,    4.666667e+00,    3.033333e+01
    2274,    1.166667e+01,    4.666667e+00,    2.916667e+01
    2275,    1.166667e+01,    4.666667e+00,    2.800000e+01
    2276,    1.166667e+01,    4.666667e+00,    2.683333e+01
    2277,    1.166667e+01,    4.666667e+00,    2.566667e+01
    2278,    1.166667e+01,    4.666667e+00,    2.450000e+01
    2279,    1.166667e+01,    4.666667e+00,    2.333333e+01
    2280,    1.166667e+01,    4.666667e+00,    2.216667e+01
    2281,    1.166667e+01,    4.666667e+00,    2.100000e+01
    2282,    1.166667e+01,    4.666667e+00,    1.983333e+01
    2283,    1.166667e+01,    4.666667e+00,    1.866667e+01
    2284,    1.166667e+01,    4.666667e+00,    1.750000e+01
    2285,    1.166667e+01,    4.666667e+00,    1.633333e+01
    2286,    1.166667e+01,    4.666667e+00,    1.516667e+01
    2287,    1.166667e+01,    5.833333e+00,    3.383333e+01
    2288,    1.166667e+01,    5.833333e+00,    3.266667e+01
    2289,    1.166667e+01,    5.833333e+00,    3.150000e+01
    2290,    1.166667e+01,    5.833333e+00,    3.033333e+01
    2291,    1.166667e+01,    5.833333e+00,    2.916667e+01
    2292,    1.166667e+01,    5.833333e+00,    2.800000e+01
    2293,    1.166667e+01,    5.833333e+00,    2.683333e+01
    2294,    1.166667e+01,    5.833333e+00,    2.566667e+01
    2295,    1.166667e+01,    5.833333e+00,    2.450000e+01
    2296,    1.166667e+01,    5.833333e+00,    2.333333e+01
    2297,    1.166667e+01,    5.833333e+00,    2.216667e+01
    2298,    1.166667e+01,    5.833333e+00,    2.100000e+01
    2299,    1.166667e+01,    5.833333e+00,    1.983333e+01
    2300,    1.166667e+01,    5.833333e+00,    1.866667e+01
    2301,    1.166667e+01,    5.833333e+00,    1.750000e+01
    2302,    1.166667e+01,    5.833333e+00,    1.633333e+01
    2303,    1.166667e+01,    5.833333e+00,    1.516667e+01
    2304,    1.166667e+01,    7.000000e+00,    3.383333e+01
    2305,    1.166667e+01,    7.000000e+00,    3.266667e+01
    2306,    1.166667e+01,    7.000000e+00,    3.150000e+01
    2307,    1.166667e+01,    7.000000e+00,    3.033333e+01
    2308,    1.166667e+01,    7.000000e+00,    2.916667e+01
    2309,    1.166667e+01,    7.000000e+00,    2.800000e+01
    2310,    1.166667e+01,    7.000000e+00,    2.683333e+01
    2311,    1.166667e+01,    7.000000e+00,    2.566667e+01
    2312,    1.166667e+01,    7.000000e+00,    2.450000e+01
    2313,    1.166667e+01,    7.000000e+00,    2.333333e+01
    2314,    1.166667e+01,    7.000000e+00,    2.216667e+01
    2315,    1.166667e+01,    7.000000e+00,    2.100000e+01
    2316,    1.166667e+01,    7.000000e+00,    1.983333e+01
    2317,    1.166667e+01,    7.000000e+00,    1.866667e+01
    2318,    1.166667e+01,    7.000000e+00,    1.750000e+01
    2319,    1.166667e+01,    7.000000e+00,    1.633333e+01
    2320,    1.166667e+01,    7.000000e+00,    1.516667e+01
    2321,    1.166667e+01,    8.166667e+00,    3.383333e+01
    2322,    1.166667e+01,    8.166667e+00,    3.266667e+01
    2323,    1.166667e+01,    8.166667e+00,    3.150000e+01
    2324,    1.166667e+01,    8.166667e+00,    3.033333e+01
    2325,    1.166667e+01,    8.166667e+00,    2.916667e+01
    2326,    1.166667e+01,    8.166667e+00,    2.800000e+01
    2327,    1.166667e+01,    8.166667e+00,    2.683333e+01
    2328,    1.166667e+01,    8.166667e+00,    2.566667e+01
    2329,    1.166667e+01,    8.166667e+00,    2.450000e+01
    2330,    1.166667e+01,    8.166667e+00,    2.333333e+01
    2331,    1.166667e+01,    8.166667e+00,    2.216667e+01
    2332,    1.166667e+01,    8.166667e+00,    2.100000e+01
    2333,    1.166667e+01,    8.166667e+00,    1.983333e+01
    2334,    1.166667e+01,    8.166667e+00,    1.866667e+01
    2335,    1.166667e+01,    8.166667e+00,    1.750000e+01
    2336,    1.166667e+01,    8.166667e+00,    1.633333e+01
    2337,    1.166667e+01,    8.166667e+00,    1.516667e+01
    2338,    1.166667e+01,    9.333333e+00,    3.383333e+01
    2339,    1.166667e+01,    9.333333e+00,    3.266667e+01
    2340,    1.166667e+01,    9.333333e+00,    3.150000e+01
    2341,    1.166667e+01,    9.333333e+00,    3.033333e+01
    2342,    1.166667e+01,    9.333333e+00,    2.916667e+01
    2343,    1.166667e+01,    9.333333e+00,    2.800000e+01
    2344,    1.166667e+01,    9.333333e+00,    2.683333e+01
    2345,    1.166667e+01,    9.333333e+00,    2.566667e+01
    2346,    1.166667e+01,    9.333333e+00,    2.450000e+01
    2347,    1.166667e+01,    9.333333e+00,    2.333333e+01
    2348,    1.166667e+01,    9.333333e+00,    2.216667e+01
    2349,    1.166667e+01,    9.333333e+00,    2.100000e+01
    2350,    1.166667e+01,    9.333333e+00,    1.983333e+01
    2351,    1.166667e+01,    9.333333e+00,    1.866667e+01
    2352,    1.166667e+01,    9.333333e+00,    1.750000e+01
    2353,    1.166667e+01,    9.333333e+00,    1.633333e+01
    2354,    1.166667e+01,    9.333333e+00,    1.516667e+01
    2355,    1.166667e+01,    1.050000e+01,    3.383333e+01
    2356,    1.166667e+01,    1.050000e+01,    3.266667e+01
    2357,    1.166667e+01,    1.050000e+01,    3.150000e+01
    2358,    1.166667e+01,    1.050000e+01,    3.033333e+01
    2359,    1.166667e+01,    1.050000e+01,    2.916667e+01
    2360,    1.166667e+01,    1.050000e+01,    2.800000e+01
    2361,    1.166667e+01,    1.050000e+01,    2.683333e+01
    2362,    1.166667e+01,    1.050000e+01,    2.566667e+01
    2363,    1.166667e+01,    1.050000e+01,    2.450000e+01
    2364,    1.166667e+01,    1.050000e+01,    2.333333e+01
    2365,    1.166667e+01,    1.050000e+01,    2.216667e+01
    2366,    1.166667e+01,    1.050000e+01,    2.100000e+01
    2367,    1.166667e+01,    1.050000e+01,    1.983333e+01
    2368,    1.166667e+01,    1.050000e+01,    1.866667e+01
    2369,    1.166667e+01,    1.050000e+01,    1.750000e+01
    2370,    1.166667e+01,    1.050000e+01,    1.633333e+01
    2371,    1.166667e+01,    1.050000e+01,    1.516667e+01
    2372,    1.166667e+01,    1.166667e+01,    3.383333e+01
    2373,    1.166667e+01,    1.166667e+01,    3.266667e+01
    2374,    1.166667e+01,    1.166667e+01,    3.150000e+01
    2375,    1.166667e+01,    1.166667e+01,    3.033333e+01
    2376,    1.166667e+01,    1.166667e+01,    2.916667e+01
    2377,    1.166667e+01,    1.166667e+01,    2.800000e+01
    2378,    1.166667e+01,    1.166667e+01,    2.683333e+01
    2379,    1.166667e+01,    1.166667e+01,    2.566667e+01
    2380,    1.166667e+01,    1.166667e+01,    2.450000e+01
    2381,    1.166667e+01,    1.166667e+01,    2.333333e+01
    2382,    1.166667e+01,    1.166667e+01,    2.216667e+01
    2383,    1.166667e+01,    1.166667e+01,    2.100000e+01
    2384,    1.166667e+01,    1.166667e+01,    1.983333e+01
    2385,    1.166667e+01,    1.166667e+01,    1.866667e+01
    2386,    1.166667e+01,    1.166667e+01,    1.750000e+01
    2387,    1.166667e+01,    1.166667e+01,    1.633333e+01
    2388,    1.166667e+01,    1.166667e+01,    1.516667e+01
    2389,    1.166667e+01,    1.283333e+01,    3.383333e+01
    2390,    1.166667e+01,    1.283333e+01,    3.266667e+01
    2391,    1.166667e+01,    1.283333e+01,    3.150000e+01
    2392,    1.166667e+01,    1.283333e+01,    3.033333e+01
    2393,    1.166667e+01,    1.283333e+01,    2.916667e+01
    2394,    1.166667e+01,    1.283333e+01,    2.800000e+01
    2395,    1.166667e+01,    1.283333e+01,    2.683333e+01
    2396,    1.166667e+01,    1.283333e+01,    2.566667e+01
    2397,    1.166667e+01,    1.283333e+01,    2.450000e+01
    2398,    1.166667e+01,    1.283333e+01,    2.333333e+01
    2399,    1.166667e+01,    1.283333e+01,    2.216667e+01
    2400,    1.166667e+01,    1.283333e+01,    2.100000e+01
    2401,    1.166667e+01,    1.283333e+01,    1.983333e+01
    2402,    1.166667e+01,    1.283333e+01,    1.866667e+01
    2403,    1.166667e+01,    1.283333e+01,    1.750000e+01
    2404,    1.166667e+01,    1.283333e+01,    1.633333e+01
    2405,    1.166667e+01,    1.283333e+01,    1.516667e+01
    2406,    1.283333e+01,    1.166667e+00,    3.383333e+01
    2407,    1.283333e+01,    1.166667e+00,    3.266667e+01
    2408,    1.283333e+01,    1.166667e+00,    3.150000e+01
    2409,    1.283333e+01,    1.166667e+00,    3.033333e+01
    2410,    1.283333e+01,    1.166667e+00,    2.916667e+01
    2411,    1.283333e+01,    1.166667e+00,    2.800000e+01
    2412,    1.283333e+01,    1.166667e+00,    2.683333e+01
    2413,    1.283333e+01,    1.166667e+00,    2.566667e+01
    2414,    1.283333e+01,    1.166667e+00,    2.450000e+01
    2415,    1.283333e+01,    1.166667e+00,    2.333333e+01
    2416,    1.283333e+01,    1.166667e+00,    2.216667e+01
    2417,    1.283333e+01,    1.166667e+00,    2.100000e+01
    2418,    1.283333e+01,    1.166667e+00,    1.983333e+01
    2419,    1.283333e+01,    1.166667e+00,    1.866667e+01
    2420,    1.283333e+01,    1.166667e+00,    1.750000e+01
    2421,    1.283333e+01,    1.166667e+00,    1.633333e+01
    2422,    1.283333e+01,    1.166667e+00,    1.516667e+01
    2423,    1.283333e+01,    2.333333e+00,    3.383333e+01
    2424,    1.283333e+01,    2.333333e+00,    3.266667e+01
    2425,    1.283333e+01,    2.333333e+00,    3.150000e+01
    2426,    1.283333e+01,    2.333333e+00,    3.033333e+01
    2427,    1.283333e+01,    2.333333e+00,    2.916667e+01
    2428,    1.283333e+01,    2.333333e+00,    2.800000e+01
    2429,    1.283333e+01,    2.333333e+00,    2.683333e+01
    2430,    1.283333e+01,    2.333333e+00,    2.566667e+01
    2431,    1.283333e+01,    2.333333e+00,    2.450000e+01
    2432,    1.283333e+01,    2.333333e+00,    2.333333e+01
    2433,    1.283333e+01,    2.333333e+00,    2.216667e+01
    2434,    1.283333e+01,    2.333333e+00,    2.100000e+01
    2435,    1.283333e+01,    2.333333e+00,    1.983333e+01
    2436,    1.283333e+01,    2.333333e+00,    1.866667e+01
    2437,    1.283333e+01,    2.333333e+00,    1.750000e+01
    2438,    1.283333e+01,    2.333333e+00,    1.633333e+01
    2439,    1.283333e+01,    2.333333e+00,    1.516667e+01
    2440,    1.283333e+01,    3.500000e+00,    3.383333e+01
    2441,    1.283333e+01,    3.500000e+00,    3.266667e+01
    2442,    1.283333e+01,    3.500000e+00,    3.150000e+01
    2443,    1.283333e+01,    3.500000e+00,    3.033333e+01
    2444,    1.283333e+01,    3.500000e+00,    2.916667e+01
    2445,    1.283333e+01,    3.500000e+00,    2.800000e+01
    2446,    1.283333e+01,    3.500000e+00,    2.683333e+01
    2447,    1.283333e+01,    3.500000e+00,    2.566667e+01
    2448,    1.283333e+01,    3.500000e+00,    2.450000e+01
    2449,    1.283333e+01,    3.500000e+00,    2.333333e+01
    2450,    1.283333e+01,    3.500000e+00,    2.216667e+01
    2451,    1.283333e+01,    3.500000e+00,    2.100000e+01
    2452,    1.283333e+01,    3.500000e+00,    1.983333e+01
    2453,    1.283333e+01,    3.500000e+00,    1.866667e+01
    2454,    1.283333e+01,    3.500000e+00,    1.750000e+01
    2455,    1.283333e+01,    3.500000e+00,    1.633333e+01
    2456,    1.283333e+01,    3.500000e+00,    1.516667e+01
    2457,    1.283333e+01,    4.666667e+00,    3.383333e+01
    2458,    1.283333e+01,    4.666667e+00,    3.266667e+01
    2459,    1.283333e+01,    4.666667e+00,    3.150000e+01
    2460,    1.283333e+01,    4.666667e+00,    3.033333e+01
    2461,    1.283333e+01,    4.666667e+00,    2.916667e+01
    2462,    1.283333e+01,    4.666667e+00,    2.800000e+01
    2463,    1.283333e+01,    4.666667e+00,    2.683333e+01
    2464,    1.283333e+01,    4.666667e+00,    2.566667e+01
    2465,    1.283333e+01,    4.666667e+00,    2.450000e+01
    2466,    1.283333e+01,    4.666667e+00,    2.333333e+01
    2467,    1.283333e+01,    4.666667e+00,    2.216667e+01
    2468,    1.283333e+01,    4.666667e+00,    2.100000e+01
    2469,    1.283333e+01,    4.666667e+00,    1.983333e+01
    2470,    1.283333e+01,    4.666667e+00,    1.866667e+01
    2471,    1.283333e+01,    4.666667e+00,    1.750000e+01
    2472,    1.283333e+01,    4.666667e+00,    1.633333e+01
    2473,    1.283333e+01,    4.666667e+00,    1.516667e+01
    2474,    1.283333e+01,    5.833333e+00,    3.383333e+01
    2475,    1.283333e+01,    5.833333e+00,    3.266667e+01
    2476,    1.283333e+01,    5.833333e+00,    3.150000e+01
    2477,    1.283333e+01,    5.833333e+00,    3.033333e+01
    2478,    1.283333e+01,    5.833333e+00,    2.916667e+01
    2479,    1.283333e+01,    5.833333e+00,    2.800000e+01
    2480,    1.283333e+01,    5.833333e+00,    2.683333e+01
    2481,    1.283333e+01,    5.833333e+00,    2.566667e+01
    2482,    1.283333e+01,    5.833333e+00,    2.450000e+01
    2483,    1.283333e+01,    5.833333e+00,    2.333333e+01
    2484,    1.283333e+01,    5.833333e+00,    2.216667e+01
    2485,    1.283333e+01,    5.833333e+00,    2.100000e+01
    2486,    1.283333e+01,    5.833333e+00,    1.983333e+01
    2487,    1.283333e+01,    5.833333e+00,    1.866667e+01
    2488,    1.283333e+01,    5.833333e+00,    1.750000e+01
    2489,    1.283333e+01,    5.833333e+00,    1.633333e+01
    2490,    1.283333e+01,    5.833333e+00,    1.516667e+01
    2491,    1.283333e+01,    7.000000e+00,    3.383333e+01
    2492,    1.283333e+01,    7.000000e+00,    3.266667e+01
    2493,    1.283333e+01,    7.000000e+00,    3.150000e+01
    2494,    1.283333e+01,    7.000000e+00,    3.033333e+01
    2495,    1.283333e+01,    7.000000e+00,    2.916667e+01
    2496,    1.283333e+01,    7.000000e+00,    2.800000e+01
    2497,    1.283333e+01,    7.000000e+00,    2.683333e+01
    2498,    1.283333e+01,    7.000000e+00,    2.566667e+01
    2499,    1.283333e+01,    7.000000e+00,    2.450000e+01
    2500,    1.283333e+01,    7.000000e+00,    2.333333e+01
    2501,    1.283333e+01,    7.000000e+00,    2.216667e+01
    2502,    1.283333e+01,    7.000000e+00,    2.100000e+01
    2503,    1.283333e+01,    7.000000e+00,    1.983333e+01
    2504,    1.283333e+01,    7.000000e+00,    1.866667e+01
    2505,    1.283333e+01,    7.000000e+00,    1.750000e+01
    2506,    1.283333e+01,    7.000000e+00,    1.633333e+01
    2507,    1.283333e+01,    7.000000e+00,    1.516667e+01
    2508,    1.283333e+01,    8.166667e+00,    3.383333e+01
    2509,    1.283333e+01,    8.166667e+00,    3.266667e+01
    2510,    1.283333e+01,    8.166667e+00,    3.150000e+01
    2511,    1.283333e+01,    8.166667e+00,    3.033333e+01
    2512,    1.283333e+01,    8.166667e+00,    2.916667e+01
    2513,    1.283333e+01,    8.166667e+00,    2.800000e+01
    2514,    1.283333e+01,    8.166667e+00,    2.683333e+01
    2515,    1.283333e+01,    8.166667e+00,    2.566667e+01
    2516,    1.283333e+01,    8.166667e+00,    2.450000e+01
    2517,    1.283333e+01,    8.166667e+00,    2.333333e+01
    2518,    1.283333e+01,    8.166667e+00,    2.216667e+01
    2519,    1.283333e+01,    8.166667e+00,    2.100000e+01
    2520,    1.283333e+01,    8.166667e+00,    1.983333e+01
    2521,    1.283333e+01,    8.166667e+00,    1.866667e+01
    2522,    1.283333e+01,    8.166667e+00,    1.750000e+01
    2523,    1.283333e+01,    8.166667e+00,    1.633333e+01
    2524,    1.283333e+01,    8.166667e+00,    1.516667e+01
    2525,    1.283333e+01,    9.333333e+00,    3.383333e+01
    2526,    1.283333e+01,    9.333333e+00,    3.266667e+01
    2527,    1.283333e+01,    9.333333e+00,    3.150000e+01
    2528,    1.283333e+01,    9.333333e+00,    3.033333e+01
    2529,    1.283333e+01,    9.333333e+00,    2.916667e+01
    2530,    1.283333e+01,    9.333333e+00,    2.800000e+01
    2531,    1.283333e+01,    9.333333e+00,    2.683333e+01
    2532,    1.283333e+01,    9.333333e+00,    2.566667e+01
    2533,    1.283333e+01,    9.333333e+00,    2.450000e+01
    2534,    1.283333e+01,    9.333333e+00,    2.333333e+01
    2535,    1.283333e+01,    9.333333e+00,    2.216667e+01
    2536,    1.283333e+01,    9.333333e+00,    2.100000e+01
    2537,    1.283333e+01,    9.333333e+00,    1.983333e+01
    2538,    1.283333e+01,    9.333333e+00,    1.866667e+01
    2539,    1.283333e+01,    9.333333e+00,    1.750000e+01
    2540,    1.283333e+01,    9.333333e+00,    1.633333e+01
    2541,    1.283333e+01,    9.333333e+00,    1.516667e+01
    2542,    1.283333e+01,    1.050000e+01,    3.383333e+01
    2543,    1.283333e+01,    1.050000e+01,    3.266667e+01
    2544,    1.283333e+01,    1.050000e+01,    3.150000e+01
    2545,    1.283333e+01,    1.050000e+01,    3.033333e+01
    2546,    1.283333e+01,    1.050000e+01,    2.916667e+01
    2547,    1.283333e+01,    1.050000e+01,    2.800000e+01
    2548,    1.283333e+01,    1.050000e+01,    2.683333e+01
    2549,    1.283333e+01,    1.050000e+01,    2.566667e+01
    2550,    1.283333e+01,    1.050000e+01,    2.450000e+01
    2551,    1.283333e+01,    1.050000e+01,    2.333333e+01
    2552,    1.283333e+01,    1.050000e+01,    2.216667e+01
    2553,    1.283333e+01,    1.050000e+01,    2.100000e+01
    2554,    1.283333e+01,    1.050000e+01,    1.983333e+01
    2555,    1.283333e+01,    1.050000e+01,    1.866667e+01
    2556,    1.283333e+01,    1.050000e+01,    1.750000e+01
    2557,    1.283333e+01,    1.050000e+01,    1.633333e+01
    2558,    1.283333e+01,    1.050000e+01,    1.516667e+01
    2559,    1.283333e+01,    1.166667e+01,    3.383333e+01
    2560,    1.283333e+01,    1.166667e+01,    3.266667e+01
    2561,    1.283333e+01,    1.166667e+01,    3.150000e+01
    2562,    1.283333e+01,    1.166667e+01,    3.033333e+01
    2563,    1.283333e+01,    1.166667e+01,    2.916667e+01
    2564,    1.283333e+01,    1.166667e+01,    2.800000e+01
    2565,    1.283333e+01,    1.166667e+01,    2.683333e+01
    2566,    1.283333e+01,    1.166667e+01,    2.566667e+01
    2567,    1.283333e+01,    1.166667e+01,    2.450000e+01
    2568,    1.283333e+01,    1.166667e+01,    2.333333e+01
    2569,    1.283333e+01,    1.166667e+01,    2.216667e+01
    2570,    1.283333e+01,    1.166667e+01,    2.100000e+01
    2571,    1.283333e+01,    1.166667e+01,    1.983333e+01
    2572,    1.283333e+01,    1.166667e+01,    1.866667e+01
    2573,    1.283333e+01,    1.166667e+01,    1.750000e+01
    2574,    1.283333e+01,    1.166667e+01,    1.633333e+01
    2575,    1.283333e+01,    1.166667e+01,    1.516667e+01
    2576,    1.283333e+01,    1.283333e+01,    3.383333e+01
    2577,    1.283333e+01,    1.283333e+01,    3.266667e+01
    2578,    1.283333e+01,    1.283333e+01,    3.150000e+01
    2579,    1.283333e+01,    1.283333e+01,    3.033333e+01
    2580,    1.283333e+01,    1.283333e+01,    2.916667e+01
    2581,    1.283333e+01,    1.283333e+01,    2.800000e+01
    2582,    1.283333e+01,    1.283333e+01,    2.683333e+01
    2583,    1.283333e+01,    1.283333e+01,    2.566667e+01
    2584,    1.283333e+01,    1.283333e+01,    2.450000e+01
    2585,    1.283333e+01,    1.283333e+01,    2.333333e+01
    2586,    1.283333e+01,    1.283333e+01,    2.216667e+01
    2587,    1.283333e+01,    1.283333e+01,    2.100000e+01
    2588,    1.283333e+01,    1.283333e+01,    1.983333e+01
    2589,    1.283333e+01,    1.283333e+01,    1.866667e+01
    2590,    1.283333e+01,    1.283333e+01,    1.750000e+01
    2591,    1.283333e+01,    1.283333e+01,    1.633333e+01
    2592,    1.283333e+01,    1.283333e+01,    1.516667e+01
    2593,    1.400000e+01,    1.400000e+01,    1.400000e+01
    2594,    1.400000e+01,    0.000000e+00,    1.400000e+01
    2595,    1.400000e+01,    1.050000e+01,    1.400000e+01
    2596,    1.400000e+01,    7.000000e+00,    1.400000e+01
    2597,    1.400000e+01,    3.500000e+00,    1.400000e+01
    2598,    0.000000e+00,    1.400000e+01,    1.400000e+01
    2599,    3.500000e+00,    1.400000e+01,    1.400000e+01
    2600,    7.000000e+00,    1.400000e+01,    1.400000e+01
    2601,    1.050000e+01,    1.400000e+01,    1.400000e+01
    2602,    0.000000e+00,    0.000000e+00,    1.400000e+01
    2603,    0.000000e+00,    3.500000e+00,    1.400000e+01
    2604,    0.000000e+00,    7.000000e+00,    1.400000e+01
    2605,    0.000000e+00,    1.050000e+01,    1.400000e+01
    2606,    1.050000e+01,    0.000000e+00,    1.400000e+01
    2607,    7.000000e+00,    0.000000e+00,    1.400000e+01
    2608,    3.500000e+00,    0.000000e+00,    1.400000e+01
    2609,    1.050000e+01,    3.500000e+00,    1.400000e+01
    2610,    1.050000e+01,    7.000000e+00,    1.400000e+01
    2611,    1.050000e+01,    1.050000e+01,    1.400000e+01
    2612,    7.000000e+00,    3.500000e+00,    1.400000e+01
    2613,    7.000000e+00,    7.000000e+00,    1.400000e+01
    2614,    7.000000e+00,    1.050000e+01,    1.400000e+01
    2615,    3.500000e+00,    3.500000e+00,    1.400000e+01
    2616,    3.500000e+00,    7.000000e+00,    1.400000e+01
    2617,    3.500000e+00,    1.050000e+01,    1.400000e+01
    2618,    1.400000e+01,    1.400000e+01,    3.500000e+01
    2619,    1.400000e+01,    1.400000e+01,    3.150000e+01
    2620,    1.400000e+01,    1.400000e+01,    2.800000e+01
    2621,    1.400000e+01,    1.400000e+01,    2.450000e+01
    2622,    1.400000e+01,    1.400000e+01,    2.100000e+01
    2623,    1.400000e+01,    1.400000e+01,    1.750000e+01
    2624,    0.000000e+00,    1.400000e+01,    3.500000e+01
    2625,    3.500000e+00,    1.400000e+01,    3.500000e+01
    2626,    7.000000e+00,    1.400000e+01,    3.500000e+01
    2627,    1.050000e+01,    1.400000e+01,    3.500000e+01
    2628,    0.000000e+00,    1.400000e+01,    1.750000e+01
    2629,    0.000000e+00,    1.400000e+01,    2.100000e+01
    2630,    0.000000e+00,    1.400000e+01,    2.450000e+01
    2631,    0.000000e+00,    1.400000e+01,    2.800000e+01
    2632,    0.000000e+00,    1.400000e+01,    3.150000e+01
    2633,    1.050000e+01,    1.400000e+01,    1.750000e+01
    2634,    1.050000e+01,    1.400000e+01,    2.100000e+01
    2635,    1.050000e+01,    1.400000e+01,    2.450000e+01
    2636,    1.050000e+01,    1.400000e+01,    2.800000e+01
    2637,    1.050000e+01,    1.400000e+01,    3.150000e+01
    2638,    7.000000e+00,    1.400000e+01,    1.750000e+01
    2639,    7.000000e+00,    1.400000e+01,    2.100000e+01
    2640,    7.000000e+00,    1.400000e+01,    2.450000e+01
    2641,    7.000000e+00,    1.400000e+01,    2.800000e+01
    2642,    7.000000e+00,    1.400000e+01,    3.150000e+01
    2643,    3.500000e+00,    1.400000e+01,    1.750000e+01
    2644,    3.500000e+00,    1.400000e+01,    2.100000e+01
    2645,    3.500000e+00,    1.400000e+01,    2.450000e+01
    2646,    3.500000e+00,    1.400000e+01,    2.800000e+01
    2647,    3.500000e+00,    1.400000e+01,    3.150000e+01
    2648,    1.400000e+01,    0.000000e+00,    3.500000e+01
    2649,    1.400000e+01,    0.000000e+00,    3.150000e+01
    2650,    1.400000e+01,    0.000000e+00,    2.800000e+01
    2651,    1.400000e+01,    0.000000e+00,    2.450000e+01
    2652,    1.400000e+01,    0.000000e+00,    2.100000e+01
    2653,    1.400000e+01,    0.000000e+00,    1.750000e+01
    2654,    1.400000e+01,    1.050000e+01,    3.500000e+01
    2655,    1.400000e+01,    7.000000e+00,    3.500000e+01
    2656,    1.400000e+01,    3.500000e+00,    3.500000e+01
    2657,    1.400000e+01,    3.500000e+00,    1.750000e+01
    2658,    1.400000e+01,    3.500000e+00,    2.100000e+01
    2659,    1.400000e+01,    3.500000e+00,    2.450000e+01
    2660,    1.400000e+01,    3.500000e+00,    2.800000e+01
    2661,    1.400000e+01,    3.500000e+00,    3.150000e+01
    2662,    1.400000e+01,    7.000000e+00,    1.750000e+01
    2663,    1.400000e+01,    7.000000e+00,    2.100000e+01
    2664,    1.400000e+01,    7.000000e+00,    2.450000e+01
    2665,    1.400000e+01,    7.000000e+00,    2.800000e+01
    2666,    1.400000e+01,    7.000000e+00,    3.150000e+01
    2667,    1.400000e+01,    1.050000e+01,    1.750000e+01
    2668,    1.400000e+01,    1.050000e+01,    2.100000e+01
    2669,    1.400000e+01,    1.050000e+01,    2.450000e+01
    2670,    1.400000e+01,    1.050000e+01,    2.800000e+01
    2671,    1.400000e+01,    1.050000e+01,    3.150000e+01
    2672,    3.500000e+01,    0.000000e+00,    3.500000e+01
    2673,    1.750000e+01,    0.000000e+00,    3.500000e+01
    2674,    2.100000e+01,    0.000000e+00,    3.500000e+01
    2675,    2.450000e+01,    0.000000e+00,    3.500000e+01
    2676,    2.800000e+01,    0.000000e+00,    3.500000e+01
    2677,    3.150000e+01,    0.000000e+00,    3.500000e+01
    2678,    3.500000e+01,    3.500000e+01,    3.500000e+01
    2679,    3.500000e+01,    3.500000e+00,    3.500000e+01
    2680,    3.500000e+01,    7.000000e+00,    3.500000e+01
    2681,    3.500000e+01,    1.050000e+01,    3.500000e+01
    2682,    3.500000e+01,    1.400000e+01,    3.500000e+01
    2683,    3.500000e+01,    1.750000e+01,    3.500000e+01
    2684,    3.500000e+01,    2.100000e+01,    3.500000e+01
    2685,    3.500000e+01,    2.450000e+01,    3.500000e+01
    2686,    3.500000e+01,    2.800000e+01,    3.500000e+01
    2687,    3.500000e+01,    3.150000e+01,    3.500000e+01
    2688,    0.000000e+00,    3.500000e+01,    3.500000e+01
    2689,    3.150000e+01,    3.500000e+01,    3.500000e+01
    2690,    2.800000e+01,    3.500000e+01,    3.500000e+01
    2691,    2.450000e+01,    3.500000e+01,    3.500000e+01
    2692,    2.100000e+01,    3.500000e+01,    3.500000e+01
    2693,    1.750000e+01,    3.500000e+01,    3.500000e+01
    2694,    1.400000e+01,    3.500000e+01,    3.500000e+01
    2695,    1.050000e+01,    3.500000e+01,    3.500000e+01
    2696,    7.000000e+00,    3.500000e+01,    3.500000e+01
    2697,    3.500000e+00,    3.500000e+01,    3.500000e+01
    2698,    0.000000e+00,    3.150000e+01,    3.500000e+01
    2699,    0.000000e+00,    2.800000e+01,    3.500000e+01
    2700,    0.000000e+00,    2.450000e+01,    3.500000e+01
    2701,    0.000000e+00,    2.100000e+01,    3.500000e+01
    2702,    0.000000e+00,    1.750000e+01,    3.500000e+01
    2703,    1.400000e+01,    1.750000e+01,    3.500000e+01
    2704,    1.400000e+01,    2.100000e+01,    3.500000e+01
    2705,    1.400000e+01,    2.450000e+01,    3.500000e+01
    2706,    1.400000e+01,    2.800000e+01,    3.500000e+01
    2707,    1.400000e+01,    3.150000e+01,    3.500000e+01
    2708,    1.750000e+01,    3.500000e+00,    3.500000e+01
    2709,    2.100000e+01,    3.500000e+00,    3.500000e+01
    2710,    2.450000e+01,    3.500000e+00,    3.500000e+01
    2711,    2.800000e+01,    3.500000e+00,    3.500000e+01
    2712,    3.150000e+01,    3.500000e+00,    3.500000e+01
    2713,    1.750000e+01,    7.000000e+00,    3.500000e+01
    2714,    2.100000e+01,    7.000000e+00,    3.500000e+01
    2715,    2.450000e+01,    7.000000e+00,    3.500000e+01
    2716,    2.800000e+01,    7.000000e+00,    3.500000e+01
    2717,    3.150000e+01,    7.000000e+00,    3.500000e+01
    2718,    1.750000e+01,    1.050000e+01,    3.500000e+01
    2719,    2.100000e+01,    1.050000e+01,    3.500000e+01
    2720,    2.450000e+01,    1.050000e+01,    3.500000e+01
    2721,    2.800000e+01,    1.050000e+01,    3.500000e+01
    2722,    3.150000e+01,    1.050000e+01,    3.500000e+01
    2723,    1.750000e+01,    1.400000e+01,    3.500000e+01
    2724,    2.100000e+01,    1.400000e+01,    3.500000e+01
    2725,    2.450000e+01,    1.400000e+01,    3.500000e+01
    2726,    2.800000e+01,    1.400000e+01,    3.500000e+01
    2727,    3.150000e+01,    1.400000e+01,    3.500000e+01
    2728,    1.750000e+01,    1.750000e+01,    3.500000e+01
    2729,    2.100000e+01,    1.750000e+01,    3.500000e+01
    2730,    2.450000e+01,    1.750000e+01,    3.500000e+01
    2731,    2.800000e+01,    1.750000e+01,    3.500000e+01
    2732,    3.150000e+01,    1.750000e+01,    3.500000e+01
    2733,    1.750000e+01,    2.100000e+01,    3.500000e+01
    2734,    2.100000e+01,    2.100000e+01,    3.500000e+01
    2735,    2.450000e+01,    2.100000e+01,    3.500000e+01
    2736,    2.800000e+01,    2.100000e+01,    3.500000e+01
    2737,    3.150000e+01,    2.100000e+01,    3.500000e+01
    2738,    1.750000e+01,    2.450000e+01,    3.500000e+01
    2739,    2.100000e+01,    2.450000e+01,    3.500000e+01
    2740,    2.450000e+01,    2.450000e+01,    3.500000e+01
    2741,    2.800000e+01,    2.450000e+01,    3.500000e+01
    2742,    3.150000e+01,    2.450000e+01,    3.500000e+01
    2743,    1.750000e+01,    2.800000e+01,    3.500000e+01
    2744,    2.100000e+01,    2.800000e+01,    3.500000e+01
    2745,    2.450000e+01,    2.800000e+01,    3.500000e+01
    2746,    2.800000e+01,    2.800000e+01,    3.500000e+01
    2747,    3.150000e+01,    2.800000e+01,    3.500000e+01
    2748,    1.750000e+01,    3.150000e+01,    3.500000e+01
    2749,    2.100000e+01,    3.150000e+01,    3.500000e+01
    2750,    2.450000e+01,    3.150000e+01,    3.500000e+01
    2751,    2.800000e+01,    3.150000e+01,    3.500000e+01
    2752,    3.150000e+01,    3.150000e+01,    3.500000e+01
    2753,    1.050000e+01,    3.150000e+01,    3.500000e+01
    2754,    7.000000e+00,    3.150000e+01,    3.500000e+01
    2755,    3.500000e+00,    3.150000e+01,    3.500000e+01
    2756,    1.050000e+01,    2.800000e+01,    3.500000e+01
    2757,    7.000000e+00,    2.800000e+01,    3.500000e+01
    2758,    3.500000e+00,    2.800000e+01,    3.500000e+01
    2759,    1.050000e+01,    2.450000e+01,    3.500000e+01
    2760,    7.000000e+00,    2.450000e+01,    3.500000e+01
    2761,    3.500000e+00,    2.450000e+01,    3.500000e+01
    2762,    1.050000e+01,    2.100000e+01,    3.500000e+01
    2763,    7.000000e+00,    2.100000e+01,    3.500000e+01
    2764,    3.500000e+00,    2.100000e+01,    3.500000e+01
    2765,    1.050000e+01,    1.750000e+01,    3.500000e+01
    2766,    7.000000e+00,    1.750000e+01,    3.500000e+01
    2767,    3.500000e+00,    1.750000e+01,    3.500000e+01
    2768,    0.000000e+00,    0.000000e+00,   -3.500000e+01
    2769,    0.000000e+00,    0.000000e+00,    1.050000e+01
    2770,    0.000000e+00,    0.000000e+00,    7.000000e+00
    2771,    0.000000e+00,    0.000000e+00,    3.500000e+00
    2772,    0.000000e+00,    0.000000e+00,    0.000000e+00
    2773,    0.000000e+00,    0.000000e+00,   -3.500000e+00
    2774,    0.000000e+00,    0.000000e+00,   -7.000000e+00
    2775,    0.000000e+00,    0.000000e+00,   -1.050000e+01
    2776,    0.000000e+00,    0.000000e+00,   -1.400000e+01
    2777,    0.000000e+00,    0.000000e+00,   -1.750000e+01
    2778,    0.000000e+00,    0.000000e+00,   -2.100000e+01
    2779,    0.000000e+00,    0.000000e+00,   -2.450000e+01
    2780,    0.000000e+00,    0.000000e+00,   -2.800000e+01
    2781,    0.000000e+00,    0.000000e+00,   -3.150000e+01
    2782,    3.500000e+01,    0.000000e+00,   -3.500000e+01
    2783,    3.150000e+01,    0.000000e+00,   -3.500000e+01
    2784,    2.800000e+01,    0.000000e+00,   -3.500000e+01
    2785,    2.450000e+01,    0.000000e+00,   -3.500000e+01
    2786,    2.100000e+01,    0.000000e+00,   -3.500000e+01
    2787,    1.750000e+01,    0.000000e+00,   -3.500000e+01
    2788,    1.400000e+01,    0.000000e+00,   -3.500000e+01
    2789,    1.050000e+01,    0.000000e+00,   -3.500000e+01
    2790,    7.000000e+00,    0.000000e+00,   -3.500000e+01
    2791,    3.500000e+00,    0.000000e+00,   -3.500000e+01
    2792,    3.500000e+01,    0.000000e+00,    3.150000e+01
    2793,    3.500000e+01,    0.000000e+00,    2.800000e+01
    2794,    3.500000e+01,    0.000000e+00,    2.450000e+01
    2795,    3.500000e+01,    0.000000e+00,    2.100000e+01
    2796,    3.500000e+01,    0.000000e+00,    1.750000e+01
    2797,    3.500000e+01,    0.000000e+00,    1.400000e+01
    2798,    3.500000e+01,    0.000000e+00,    1.050000e+01
    2799,    3.500000e+01,    0.000000e+00,    7.000000e+00
    2800,    3.500000e+01,    0.000000e+00,    3.500000e+00
    2801,    3.500000e+01,    0.000000e+00,    0.000000e+00
    2802,    3.500000e+01,    0.000000e+00,   -3.500000e+00
    2803,    3.500000e+01,    0.000000e+00,   -7.000000e+00
    2804,    3.500000e+01,    0.000000e+00,   -1.050000e+01
    2805,    3.500000e+01,    0.000000e+00,   -1.400000e+01
    2806,    3.500000e+01,    0.000000e+00,   -1.750000e+01
    2807,    3.500000e+01,    0.000000e+00,   -2.100000e+01
    2808,    3.500000e+01,    0.000000e+00,   -2.450000e+01
    2809,    3.500000e+01,    0.000000e+00,   -2.800000e+01
    2810,    3.500000e+01,    0.000000e+00,   -3.150000e+01
    2811,    1.750000e+01,    0.000000e+00,    1.400000e+01
    2812,    2.100000e+01,    0.000000e+00,    1.400000e+01
    2813,    2.450000e+01,    0.000000e+00,    1.400000e+01
    2814,    2.800000e+01,    0.000000e+00,    1.400000e+01
    2815,    3.150000e+01,    0.000000e+00,    1.400000e+01
    2816,    3.500000e+00,    0.000000e+00,    1.050000e+01
    2817,    3.500000e+00,    0.000000e+00,    7.000000e+00
    2818,    3.500000e+00,    0.000000e+00,    3.500000e+00
    2819,    3.500000e+00,    0.000000e+00,    0.000000e+00
    2820,    3.500000e+00,    0.000000e+00,   -3.500000e+00
    2821,    3.500000e+00,    0.000000e+00,   -7.000000e+00
    2822,    3.500000e+00,    0.000000e+00,   -1.050000e+01
    2823,    3.500000e+00,    0.000000e+00,   -1.400000e+01
    2824,    3.500000e+00,    0.000000e+00,   -1.750000e+01
    2825,    3.500000e+00,    0.000000e+00,   -2.100000e+01
    2826,    3.500000e+00,    0.000000e+00,   -2.450000e+01
    2827,    3.500000e+00,    0.000000e+00,   -2.800000e+01
    2828,    3.500000e+00,    0.000000e+00,   -3.150000e+01
    2829,    7.000000e+00,    0.000000e+00,    1.050000e+01
    2830,    7.000000e+00,    0.000000e+00,    7.000000e+00
    2831,    7.000000e+00,    0.000000e+00,    3.500000e+00
    2832,    7.000000e+00,    0.000000e+00,   -1.776357e-15
    2833,    7.000000e+00,    0.000000e+00,   -3.500000e+00
    2834,    7.000000e+00,    0.000000e+00,   -7.000000e+00
    2835,    7.000000e+00,    0.000000e+00,   -1.050000e+01
    2836,    7.000000e+00,    0.000000e+00,   -1.400000e+01
    2837,    7.000000e+00,    0.000000e+00,   -1.750000e+01
    2838,    7.000000e+00,    0.000000e+00,   -2.100000e+01
    2839,    7.000000e+00,    0.000000e+00,   -2.450000e+01
    2840,    7.000000e+00,    0.000000e+00,   -2.800000e+01
    2841,    7.000000e+00,    0.000000e+00,   -3.150000e+01
    2842,    1.050000e+01,    0.000000e+00,    1.050000e+01
    2843,    1.050000e+01,    0.000000e+00,    7.000000e+00
    2844,    1.050000e+01,    0.000000e+00,    3.500000e+00
    2845,    1.050000e+01,    0.000000e+00,   -1.332268e-15
    2846,    1.050000e+01,    0.000000e+00,   -3.500000e+00
    2847,    1.050000e+01,    0.000000e+00,   -7.000000e+00
    2848,    1.050000e+01,    0.000000e+00,   -1.050000e+01
    2849,    1.050000e+01,    0.000000e+00,   -1.400000e+01
    2850,    1.050000e+01,    0.000000e+00,   -1.750000e+01
    2851,    1.050000e+01,    0.000000e+00,   -2.100000e+01
    2852,    1.050000e+01,    0.000000e+00,   -2.450000e+01
    2853,    1.050000e+01,    0.000000e+00,   -2.800000e+01
    2854,    1.050000e+01,    0.000000e+00,   -3.150000e+01
    2855,    1.400000e+01,    0.000000e+00,    1.050000e+01
    2856,    1.400000e+01,    0.000000e+00,    7.000000e+00
    2857,    1.400000e+01,    0.000000e+00,    3.500000e+00
    2858,    1.400000e+01,    0.000000e+00,   -8.881784e-16
    2859,    1.400000e+01,    0.000000e+00,   -3.500000e+00
    2860,    1.400000e+01,    0.000000e+00,   -7.000000e+00
    2861,    1.400000e+01,    0.000000e+00,   -1.050000e+01
    2862,    1.400000e+01,    0.000000e+00,   -1.400000e+01
    2863,    1.400000e+01,    0.000000e+00,   -1.750000e+01
    2864,    1.400000e+01,    0.000000e+00,   -2.100000e+01
    2865,    1.400000e+01,    0.000000e+00,   -2.450000e+01
    2866,    1.400000e+01,    0.000000e+00,   -2.800000e+01
    2867,    1.400000e+01,    0.000000e+00,   -3.150000e+01
    2868,    1.750000e+01,    0.000000e+00,    1.050000e+01
    2869,    1.750000e+01,    0.000000e+00,    7.000000e+00
    2870,    1.750000e+01,    0.000000e+00,    3.500000e+00
    2871,    1.750000e+01,    0.000000e+00,    0.000000e+00
    2872,    1.750000e+01,    0.000000e+00,   -3.500000e+00
    2873,    1.750000e+01,    0.000000e+00,   -7.000000e+00
    2874,    1.750000e+01,    0.000000e+00,   -1.050000e+01
    2875,    1.750000e+01,    0.000000e+00,   -1.400000e+01
    2876,    1.750000e+01,    0.000000e+00,   -1.750000e+01
    2877,    1.750000e+01,    0.000000e+00,   -2.100000e+01
    2878,    1.750000e+01,    0.000000e+00,   -2.450000e+01
    2879,    1.750000e+01,    0.000000e+00,   -2.800000e+01
    2880,    1.750000e+01,    0.000000e+00,   -3.150000e+01
    2881,    2.100000e+01,    0.000000e+00,    1.050000e+01
    2882,    2.100000e+01,    0.000000e+00,    7.000000e+00
    2883,    2.100000e+01,    0.000000e+00,    3.500000e+00
    2884,    2.100000e+01,    0.000000e+00,   -8.881784e-16
    2885,    2.100000e+01,    0.000000e+00,   -3.500000e+00
    2886,    2.100000e+01,    0.000000e+00,   -7.000000e+00
    2887,    2.100000e+01,    0.000000e+00,   -1.050000e+01
    2888,    2.100000e+01,    0.000000e+00,   -1.400000e+01
    2889,    2.100000e+01,    0.000000e+00,   -1.750000e+01
    2890,    2.100000e+01,    0.000000e+00,   -2.100000e+01
    2891,    2.100000e+01,    0.000000e+00,   -2.450000e+01
    2892,    2.100000e+01,    0.000000e+00,   -2.800000e+01
    2893,    2.100000e+01,    0.000000e+00,   -3.150000e+01
    2894,    2.450000e+01,    0.000000e+00,    1.050000e+01
    2895,    2.450000e+01,    0.000000e+00,    7.000000e+00
    2896,    2.450000e+01,    0.000000e+00,    3.500000e+00
    2897,    2.450000e+01,    0.000000e+00,   -8.881784e-16
    2898,    2.450000e+01,    0.000000e+00,   -3.500000e+00
    2899,    2.450000e+01,    0.000000e+00,   -7.000000e+00
    2900,    2.450000e+01,    0.000000e+00,   -1.050000e+01
    2901,    2.450000e+01,    0.000000e+00,   -1.400000e+01
    2902,    2.450000e+01,    0.000000e+00,   -1.750000e+01
    2903,    2.450000e+01,    0.000000e+00,   -2.100000e+01
    2904,    2.450000e+01,    0.000000e+00,   -2.450000e+01
    2905,    2.450000e+01,    0.000000e+00,   -2.800000e+01
    2906,    2.450000e+01,    0.000000e+00,   -3.150000e+01
    2907,    2.800000e+01,    0.000000e+00,    1.050000e+01
    2908,    2.800000e+01,    0.000000e+00,    7.000000e+00
    2909,    2.800000e+01,    0.000000e+00,    3.500000e+00
    2910,    2.800000e+01,    0.000000e+00,   -1.776357e-15
    2911,    2.800000e+01,    0.000000e+00,   -3.500000e+00
    2912,    2.800000e+01,    0.000000e+00,   -7.000000e+00
    2913,    2.800000e+01,    0.000000e+00,   -1.050000e+01
    2914,    2.800000e+01,    0.000000e+00,   -1.400000e+01
    2915,    2.800000e+01,    0.000000e+00,   -1.750000e+01
    2916,    2.800000e+01,    0.000000e+00,   -2.100000e+01
    2917,    2.800000e+01,    0.000000e+00,   -2.450000e+01
    2918,    2.800000e+01,    0.000000e+00,   -2.800000e+01
    2919,    2.800000e+01,    0.000000e+00,   -3.150000e+01
    2920,    3.150000e+01,    0.000000e+00,    1.050000e+01
    2921,    3.150000e+01,    0.000000e+00,    7.000000e+00
    2922,    3.150000e+01,    0.000000e+00,    3.500000e+00
    2923,    3.150000e+01,    0.000000e+00,    0.000000e+00
    2924,    3.150000e+01,    0.000000e+00,   -3.500000e+00
    2925,    3.150000e+01,    0.000000e+00,   -7.000000e+00
    2926,    3.150000e+01,    0.000000e+00,   -1.050000e+01
    2927,    3.150000e+01,    0.000000e+00,   -1.400000e+01
    2928,    3.150000e+01,    0.000000e+00,   -1.750000e+01
    2929,    3.150000e+01,    0.000000e+00,   -2.100000e+01
    2930,    3.150000e+01,    0.000000e+00,   -2.450000e+01
    2931,    3.150000e+01,    0.000000e+00,   -2.800000e+01
    2932,    3.150000e+01,    0.000000e+00,   -3.150000e+01
    2933,    3.150000e+01,    0.000000e+00,    1.750000e+01
    2934,    3.150000e+01,    0.000000e+00,    2.100000e+01
    2935,    3.150000e+01,    0.000000e+00,    2.450000e+01
    2936,    3.150000e+01,    0.000000e+00,    2.800000e+01
    2937,    3.150000e+01,    0.000000e+00,    3.150000e+01
    2938,    2.800000e+01,    0.000000e+00,    1.750000e+01
    2939,    2.800000e+01,    0.000000e+00,    2.100000e+01
    2940,    2.800000e+01,    0.000000e+00,    2.450000e+01
    2941,    2.800000e+01,    0.000000e+00,    2.800000e+01
    2942,    2.800000e+01,    0.000000e+00,    3.150000e+01
    2943,    2.450000e+01,    0.000000e+00,    1.750000e+01
    2944,    2.450000e+01,    0.000000e+00,    2.100000e+01
    2945,    2.450000e+01,    0.000000e+00,    2.450000e+01
    2946,    2.450000e+01,    0.000000e+00,    2.800000e+01
    2947,    2.450000e+01,    0.000000e+00,    3.150000e+01
    2948,    2.100000e+01,    0.000000e+00,    1.750000e+01
    2949,    2.100000e+01,    0.000000e+00,    2.100000e+01
    2950,    2.100000e+01,    0.000000e+00,    2.450000e+01
    2951,    2.100000e+01,    0.000000e+00,    2.800000e+01
    2952,    2.100000e+01,    0.000000e+00,    3.150000e+01
    2953,    1.750000e+01,    0.000000e+00,    1.750000e+01
    2954,    1.750000e+01,    0.000000e+00,    2.100000e+01
    2955,    1.750000e+01,    0.000000e+00,    2.450000e+01
    2956,    1.750000e+01,    0.000000e+00,    2.800000e+01
    2957,    1.750000e+01,    0.000000e+00,    3.150000e+01
    2958,    3.500000e+01,    3.500000e+01,   -3.500000e+01
    2959,    3.500000e+01,    3.150000e+01,   -3.500000e+01
    2960,    3.500000e+01,    2.800000e+01,   -3.500000e+01
    2961,    3.500000e+01,    2.450000e+01,   -3.500000e+01
    2962,    3.500000e+01,    2.100000e+01,   -3.500000e+01
    2963,    3.500000e+01,    1.750000e+01,   -3.500000e+01
    2964,    3.500000e+01,    1.400000e+01,   -3.500000e+01
    2965,    3.500000e+01,    1.050000e+01,   -3.500000e+01
    2966,    3.500000e+01,    7.000000e+00,   -3.500000e+01
    2967,    3.500000e+01,    3.500000e+00,   -3.500000e+01
    2968,    0.000000e+00,    3.500000e+01,   -3.500000e+01
    2969,    0.000000e+00,    3.500000e+00,   -3.500000e+01
    2970,    0.000000e+00,    7.000000e+00,   -3.500000e+01
    2971,    0.000000e+00,    1.050000e+01,   -3.500000e+01
    2972,    0.000000e+00,    1.400000e+01,   -3.500000e+01
    2973,    0.000000e+00,    1.750000e+01,   -3.500000e+01
    2974,    0.000000e+00,    2.100000e+01,   -3.500000e+01
    2975,    0.000000e+00,    2.450000e+01,   -3.500000e+01
    2976,    0.000000e+00,    2.800000e+01,   -3.500000e+01
    2977,    0.000000e+00,    3.150000e+01,   -3.500000e+01
    2978,    3.500000e+00,    3.500000e+01,   -3.500000e+01
    2979,    7.000000e+00,    3.500000e+01,   -3.500000e+01
    2980,    1.050000e+01,    3.500000e+01,   -3.500000e+01
    2981,    1.400000e+01,    3.500000e+01,   -3.500000e+01
    2982,    1.750000e+01,    3.500000e+01,   -3.500000e+01
    2983,    2.100000e+01,    3.500000e+01,   -3.500000e+01
    2984,    2.450000e+01,    3.500000e+01,   -3.500000e+01
    2985,    2.800000e+01,    3.500000e+01,   -3.500000e+01
    2986,    3.150000e+01,    3.500000e+01,   -3.500000e+01
    2987,    3.150000e+01,    3.150000e+01,   -3.500000e+01
    2988,    3.150000e+01,    2.800000e+01,   -3.500000e+01
    2989,    3.150000e+01,    2.450000e+01,   -3.500000e+01
    2990,    3.150000e+01,    2.100000e+01,   -3.500000e+01
    2991,    3.150000e+01,    1.750000e+01,   -3.500000e+01
    2992,    3.150000e+01,    1.400000e+01,   -3.500000e+01
    2993,    3.150000e+01,    1.050000e+01,   -3.500000e+01
    2994,    3.150000e+01,    7.000000e+00,   -3.500000e+01
    2995,    3.150000e+01,    3.500000e+00,   -3.500000e+01
    2996,    2.800000e+01,    3.150000e+01,   -3.500000e+01
    2997,    2.800000e+01,    2.800000e+01,   -3.500000e+01
    2998,    2.800000e+01,    2.450000e+01,   -3.500000e+01
    2999,    2.800000e+01,    2.100000e+01,   -3.500000e+01
    3000,    2.800000e+01,    1.750000e+01,   -3.500000e+01
    3001,    2.800000e+01,    1.400000e+01,   -3.500000e+01
    3002,    2.800000e+01,    1.050000e+01,   -3.500000e+01
    3003,    2.800000e+01,    7.000000e+00,   -3.500000e+01
    3004,    2.800000e+01,    3.500000e+00,   -3.500000e+01
    3005,    2.450000e+01,    3.150000e+01,   -3.500000e+01
    3006,    2.450000e+01,    2.800000e+01,   -3.500000e+01
    3007,    2.450000e+01,    2.450000e+01,   -3.500000e+01
    3008,    2.450000e+01,    2.100000e+01,   -3.500000e+01
    3009,    2.450000e+01,    1.750000e+01,   -3.500000e+01
    3010,    2.450000e+01,    1.400000e+01,   -3.500000e+01
    3011,    2.450000e+01,    1.050000e+01,   -3.500000e+01
    3012,    2.450000e+01,    7.000000e+00,   -3.500000e+01
    3013,    2.450000e+01,    3.500000e+00,   -3.500000e+01
    3014,    2.100000e+01,    3.150000e+01,   -3.500000e+01
    3015,    2.100000e+01,    2.800000e+01,   -3.500000e+01
    3016,    2.100000e+01,    2.450000e+01,   -3.500000e+01
    3017,    2.100000e+01,    2.100000e+01,   -3.500000e+01
    3018,    2.100000e+01,    1.750000e+01,   -3.500000e+01
    3019,    2.100000e+01,    1.400000e+01,   -3.500000e+01
    3020,    2.100000e+01,    1.050000e+01,   -3.500000e+01
    3021,    2.100000e+01,    7.000000e+00,   -3.500000e+01
    3022,    2.100000e+01,    3.500000e+00,   -3.500000e+01
    3023,    1.750000e+01,    3.150000e+01,   -3.500000e+01
    3024,    1.750000e+01,    2.800000e+01,   -3.500000e+01
    3025,    1.750000e+01,    2.450000e+01,   -3.500000e+01
    3026,    1.750000e+01,    2.100000e+01,   -3.500000e+01
    3027,    1.750000e+01,    1.750000e+01,   -3.500000e+01
    3028,    1.750000e+01,    1.400000e+01,   -3.500000e+01
    3029,    1.750000e+01,    1.050000e+01,   -3.500000e+01
    3030,    1.750000e+01,    7.000000e+00,   -3.500000e+01
    3031,    1.750000e+01,    3.500000e+00,   -3.500000e+01
    3032,    1.400000e+01,    3.150000e+01,   -3.500000e+01
    3033,    1.400000e+01,    2.800000e+01,   -3.500000e+01
    3034,    1.400000e+01,    2.450000e+01,   -3.500000e+01
    3035,    1.400000e+01,    2.100000e+01,   -3.500000e+01
    3036,    1.400000e+01,    1.750000e+01,   -3.500000e+01
    3037,    1.400000e+01,    1.400000e+01,   -3.500000e+01
    3038,    1.400000e+01,    1.050000e+01,   -3.500000e+01
    3039,    1.400000e+01,    7.000000e+00,   -3.500000e+01
    3040,    1.400000e+01,    3.500000e+00,   -3.500000e+01
    3041,    1.050000e+01,    3.150000e+01,   -3.500000e+01
    3042,    1.050000e+01,    2.800000e+01,   -3.500000e+01
    3043,    1.050000e+01,    2.450000e+01,   -3.500000e+01
    3044,    1.050000e+01,    2.100000e+01,   -3.500000e+01
    3045,    1.050000e+01,    1.750000e+01,   -3.500000e+01
    3046,    1.050000e+01,    1.400000e+01,   -3.500000e+01
    3047,    1.050000e+01,    1.050000e+01,   -3.500000e+01
    3048,    1.050000e+01,    7.000000e+00,   -3.500000e+01
    3049,    1.050000e+01,    3.500000e+00,   -3.500000e+01
    3050,    7.000000e+00,    3.150000e+01,   -3.500000e+01
    3051,    7.000000e+00,    2.800000e+01,   -3.500000e+01
    3052,    7.000000e+00,    2.450000e+01,   -3.500000e+01
    3053,    7.000000e+00,    2.100000e+01,   -3.500000e+01
    3054,    7.000000e+00,    1.750000e+01,   -3.500000e+01
    3055,    7.000000e+00,    1.400000e+01,   -3.500000e+01
    3056,    7.000000e+00,    1.050000e+01,   -3.500000e+01
    3057,    7.000000e+00,    7.000000e+00,   -3.500000e+01
    3058,    7.000000e+00,    3.500000e+00,   -3.500000e+01
    3059,    3.500000e+00,    3.150000e+01,   -3.500000e+01
    3060,    3.500000e+00,    2.800000e+01,   -3.500000e+01
    3061,    3.500000e+00,    2.450000e+01,   -3.500000e+01
    3062,    3.500000e+00,    2.100000e+01,   -3.500000e+01
    3063,    3.500000e+00,    1.750000e+01,   -3.500000e+01
    3064,    3.500000e+00,    1.400000e+01,   -3.500000e+01
    3065,    3.500000e+00,    1.050000e+01,   -3.500000e+01
    3066,    3.500000e+00,    7.000000e+00,   -3.500000e+01
    3067,    3.500000e+00,    3.500000e+00,   -3.500000e+01
    3068,    0.000000e+00,    3.500000e+01,    3.150000e+01
    3069,    0.000000e+00,    3.500000e+01,    2.800000e+01
    3070,    0.000000e+00,    3.500000e+01,    2.450000e+01
    3071,    0.000000e+00,    3.500000e+01,    2.100000e+01
    3072,    0.000000e+00,    3.500000e+01,    1.750000e+01
    3073,    0.000000e+00,    3.500000e+01,    1.400000e+01
    3074,    0.000000e+00,    3.500000e+01,    1.050000e+01
    3075,    0.000000e+00,    3.500000e+01,    7.000000e+00
    3076,    0.000000e+00,    3.500000e+01,    3.500000e+00
    3077,    0.000000e+00,    3.500000e+01,    0.000000e+00
    3078,    0.000000e+00,    3.500000e+01,   -3.500000e+00
    3079,    0.000000e+00,    3.500000e+01,   -7.000000e+00
    3080,    0.000000e+00,    3.500000e+01,   -1.050000e+01
    3081,    0.000000e+00,    3.500000e+01,   -1.400000e+01
    3082,    0.000000e+00,    3.500000e+01,   -1.750000e+01
    3083,    0.000000e+00,    3.500000e+01,   -2.100000e+01
    3084,    0.000000e+00,    3.500000e+01,   -2.450000e+01
    3085,    0.000000e+00,    3.500000e+01,   -2.800000e+01
    3086,    0.000000e+00,    3.500000e+01,   -3.150000e+01
    3087,    0.000000e+00,    1.750000e+01,    1.400000e+01
    3088,    0.000000e+00,    2.100000e+01,    1.400000e+01
    3089,    0.000000e+00,    2.450000e+01,    1.400000e+01
    3090,    0.000000e+00,    2.800000e+01,    1.400000e+01
    3091,    0.000000e+00,    3.150000e+01,    1.400000e+01
    3092,    0.000000e+00,    1.750000e+01,    1.750000e+01
    3093,    0.000000e+00,    1.750000e+01,    2.100000e+01
    3094,    0.000000e+00,    1.750000e+01,    2.450000e+01
    3095,    0.000000e+00,    1.750000e+01,    2.800000e+01
    3096,    0.000000e+00,    1.750000e+01,    3.150000e+01
    3097,    0.000000e+00,    2.100000e+01,    1.750000e+01
    3098,    0.000000e+00,    2.100000e+01,    2.100000e+01
    3099,    0.000000e+00,    2.100000e+01,    2.450000e+01
    3100,    0.000000e+00,    2.100000e+01,    2.800000e+01
    3101,    0.000000e+00,    2.100000e+01,    3.150000e+01
    3102,    0.000000e+00,    2.450000e+01,    1.750000e+01
    3103,    0.000000e+00,    2.450000e+01,    2.100000e+01
    3104,    0.000000e+00,    2.450000e+01,    2.450000e+01
    3105,    0.000000e+00,    2.450000e+01,    2.800000e+01
    3106,    0.000000e+00,    2.450000e+01,    3.150000e+01
    3107,    0.000000e+00,    2.800000e+01,    1.750000e+01
    3108,    0.000000e+00,    2.800000e+01,    2.100000e+01
    3109,    0.000000e+00,    2.800000e+01,    2.450000e+01
    3110,    0.000000e+00,    2.800000e+01,    2.800000e+01
    3111,    0.000000e+00,    2.800000e+01,    3.150000e+01
    3112,    0.000000e+00,    3.150000e+01,    1.750000e+01
    3113,    0.000000e+00,    3.150000e+01,    2.100000e+01
    3114,    0.000000e+00,    3.150000e+01,    2.450000e+01
    3115,    0.000000e+00,    3.150000e+01,    2.800000e+01
    3116,    0.000000e+00,    3.150000e+01,    3.150000e+01
    3117,    0.000000e+00,    3.150000e+01,    1.050000e+01
    3118,    0.000000e+00,    3.150000e+01,    7.000000e+00
    3119,    0.000000e+00,    3.150000e+01,    3.500000e+00
    3120,    0.000000e+00,    3.150000e+01,    0.000000e+00
    3121,    0.000000e+00,    3.150000e+01,   -3.500000e+00
    3122,    0.000000e+00,    3.150000e+01,   -7.000000e+00
    3123,    0.000000e+00,    3.150000e+01,   -1.050000e+01
    3124,    0.000000e+00,    3.150000e+01,   -1.400000e+01
    3125,    0.000000e+00,    3.150000e+01,   -1.750000e+01
    3126,    0.000000e+00,    3.150000e+01,   -2.100000e+01
    3127,    0.000000e+00,    3.150000e+01,   -2.450000e+01
    3128,    0.000000e+00,    3.150000e+01,   -2.800000e+01
    3129,    0.000000e+00,    3.150000e+01,   -3.150000e+01
    3130,    0.000000e+00,    2.800000e+01,    1.050000e+01
    3131,    0.000000e+00,    2.800000e+01,    7.000000e+00
    3132,    0.000000e+00,    2.800000e+01,    3.500000e+00
    3133,    0.000000e+00,    2.800000e+01,   -1.776357e-15
    3134,    0.000000e+00,    2.800000e+01,   -3.500000e+00
    3135,    0.000000e+00,    2.800000e+01,   -7.000000e+00
    3136,    0.000000e+00,    2.800000e+01,   -1.050000e+01
    3137,    0.000000e+00,    2.800000e+01,   -1.400000e+01
    3138,    0.000000e+00,    2.800000e+01,   -1.750000e+01
    3139,    0.000000e+00,    2.800000e+01,   -2.100000e+01
    3140,    0.000000e+00,    2.800000e+01,   -2.450000e+01
    3141,    0.000000e+00,    2.800000e+01,   -2.800000e+01
    3142,    0.000000e+00,    2.800000e+01,   -3.150000e+01
    3143,    0.000000e+00,    2.450000e+01,    1.050000e+01
    3144,    0.000000e+00,    2.450000e+01,    7.000000e+00
    3145,    0.000000e+00,    2.450000e+01,    3.500000e+00
    3146,    0.000000e+00,    2.450000e+01,   -1.332268e-15
    3147,    0.000000e+00,    2.450000e+01,   -3.500000e+00
    3148,    0.000000e+00,    2.450000e+01,   -7.000000e+00
    3149,    0.000000e+00,    2.450000e+01,   -1.050000e+01
    3150,    0.000000e+00,    2.450000e+01,   -1.400000e+01
    3151,    0.000000e+00,    2.450000e+01,   -1.750000e+01
    3152,    0.000000e+00,    2.450000e+01,   -2.100000e+01
    3153,    0.000000e+00,    2.450000e+01,   -2.450000e+01
    3154,    0.000000e+00,    2.450000e+01,   -2.800000e+01
    3155,    0.000000e+00,    2.450000e+01,   -3.150000e+01
    3156,    0.000000e+00,    2.100000e+01,    1.050000e+01
    3157,    0.000000e+00,    2.100000e+01,    7.000000e+00
    3158,    0.000000e+00,    2.100000e+01,    3.500000e+00
    3159,    0.000000e+00,    2.100000e+01,   -8.881784e-16
    3160,    0.000000e+00,    2.100000e+01,   -3.500000e+00
    3161,    0.000000e+00,    2.100000e+01,   -7.000000e+00
    3162,    0.000000e+00,    2.100000e+01,   -1.050000e+01
    3163,    0.000000e+00,    2.100000e+01,   -1.400000e+01
    3164,    0.000000e+00,    2.100000e+01,   -1.750000e+01
    3165,    0.000000e+00,    2.100000e+01,   -2.100000e+01
    3166,    0.000000e+00,    2.100000e+01,   -2.450000e+01
    3167,    0.000000e+00,    2.100000e+01,   -2.800000e+01
    3168,    0.000000e+00,    2.100000e+01,   -3.150000e+01
    3169,    0.000000e+00,    1.750000e+01,    1.050000e+01
    3170,    0.000000e+00,    1.750000e+01,    7.000000e+00
    3171,    0.000000e+00,    1.750000e+01,    3.500000e+00
    3172,    0.000000e+00,    1.750000e+01,    0.000000e+00
    3173,    0.000000e+00,    1.750000e+01,   -3.500000e+00
    3174,    0.000000e+00,    1.750000e+01,   -7.000000e+00
    3175,    0.000000e+00,    1.750000e+01,   -1.050000e+01
    3176,    0.000000e+00,    1.750000e+01,   -1.400000e+01
    3177,    0.000000e+00,    1.750000e+01,   -1.750000e+01
    3178,    0.000000e+00,    1.750000e+01,   -2.100000e+01
    3179,    0.000000e+00,    1.750000e+01,   -2.450000e+01
    3180,    0.000000e+00,    1.750000e+01,   -2.800000e+01
    3181,    0.000000e+00,    1.750000e+01,   -3.150000e+01
    3182,    0.000000e+00,    1.400000e+01,    1.050000e+01
    3183,    0.000000e+00,    1.400000e+01,    7.000000e+00
    3184,    0.000000e+00,    1.400000e+01,    3.500000e+00
    3185,    0.000000e+00,    1.400000e+01,   -8.881784e-16
    3186,    0.000000e+00,    1.400000e+01,   -3.500000e+00
    3187,    0.000000e+00,    1.400000e+01,   -7.000000e+00
    3188,    0.000000e+00,    1.400000e+01,   -1.050000e+01
    3189,    0.000000e+00,    1.400000e+01,   -1.400000e+01
    3190,    0.000000e+00,    1.400000e+01,   -1.750000e+01
    3191,    0.000000e+00,    1.400000e+01,   -2.100000e+01
    3192,    0.000000e+00,    1.400000e+01,   -2.450000e+01
    3193,    0.000000e+00,    1.400000e+01,   -2.800000e+01
    3194,    0.000000e+00,    1.400000e+01,   -3.150000e+01
    3195,    0.000000e+00,    1.050000e+01,    1.050000e+01
    3196,    0.000000e+00,    1.050000e+01,    7.000000e+00
    3197,    0.000000e+00,    1.050000e+01,    3.500000e+00
    3198,    0.000000e+00,    1.050000e+01,   -8.881784e-16
    3199,    0.000000e+00,    1.050000e+01,   -3.500000e+00
    3200,    0.000000e+00,    1.050000e+01,   -7.000000e+00
    3201,    0.000000e+00,    1.050000e+01,   -1.050000e+01
    3202,    0.000000e+00,    1.050000e+01,   -1.400000e+01
    3203,    0.000000e+00,    1.050000e+01,   -1.750000e+01
    3204,    0.000000e+00,    1.050000e+01,   -2.100000e+01
    3205,    0.000000e+00,    1.050000e+01,   -2.450000e+01
    3206,    0.000000e+00,    1.050000e+01,   -2.800000e+01
    3207,    0.000000e+00,    1.050000e+01,   -3.150000e+01
    3208,    0.000000e+00,    7.000000e+00,    1.050000e+01
    3209,    0.000000e+00,    7.000000e+00,    7.000000e+00
    3210,    0.000000e+00,    7.000000e+00,    3.500000e+00
    3211,    0.000000e+00,    7.000000e+00,   -1.776357e-15
    3212,    0.000000e+00,    7.000000e+00,   -3.500000e+00
    3213,    0.000000e+00,    7.000000e+00,   -7.000000e+00
    3214,    0.000000e+00,    7.000000e+00,   -1.050000e+01
    3215,    0.000000e+00,    7.000000e+00,   -1.400000e+01
    3216,    0.000000e+00,    7.000000e+00,   -1.750000e+01
    3217,    0.000000e+00,    7.000000e+00,   -2.100000e+01
    3218,    0.000000e+00,    7.000000e+00,   -2.450000e+01
    3219,    0.000000e+00,    7.000000e+00,   -2.800000e+01
    3220,    0.000000e+00,    7.000000e+00,   -3.150000e+01
    3221,    0.000000e+00,    3.500000e+00,    1.050000e+01
    3222,    0.000000e+00,    3.500000e+00,    7.000000e+00
    3223,    0.000000e+00,    3.500000e+00,    3.500000e+00
    3224,    0.000000e+00,    3.500000e+00,    0.000000e+00
    3225,    0.000000e+00,    3.500000e+00,   -3.500000e+00
    3226,    0.000000e+00,    3.500000e+00,   -7.000000e+00
    3227,    0.000000e+00,    3.500000e+00,   -1.050000e+01
    3228,    0.000000e+00,    3.500000e+00,   -1.400000e+01
    3229,    0.000000e+00,    3.500000e+00,   -1.750000e+01
    3230,    0.000000e+00,    3.500000e+00,   -2.100000e+01
    3231,    0.000000e+00,    3.500000e+00,   -2.450000e+01
    3232,    0.000000e+00,    3.500000e+00,   -2.800000e+01
    3233,    0.000000e+00,    3.500000e+00,   -3.150000e+01
    3234,    3.500000e+01,    3.500000e+01,    3.150000e+01
    3235,    3.500000e+01,    3.500000e+01,    2.800000e+01
    3236,    3.500000e+01,    3.500000e+01,    2.450000e+01
    3237,    3.500000e+01,    3.500000e+01,    2.100000e+01
    3238,    3.500000e+01,    3.500000e+01,    1.750000e+01
    3239,    3.500000e+01,    3.500000e+01,    1.400000e+01
    3240,    3.500000e+01,    3.500000e+01,    1.050000e+01
    3241,    3.500000e+01,    3.500000e+01,    7.000000e+00
    3242,    3.500000e+01,    3.500000e+01,    3.500000e+00
    3243,    3.500000e+01,    3.500000e+01,    0.000000e+00
    3244,    3.500000e+01,    3.500000e+01,   -3.500000e+00
    3245,    3.500000e+01,    3.500000e+01,   -7.000000e+00
    3246,    3.500000e+01,    3.500000e+01,   -1.050000e+01
    3247,    3.500000e+01,    3.500000e+01,   -1.400000e+01
    3248,    3.500000e+01,    3.500000e+01,   -1.750000e+01
    3249,    3.500000e+01,    3.500000e+01,   -2.100000e+01
    3250,    3.500000e+01,    3.500000e+01,   -2.450000e+01
    3251,    3.500000e+01,    3.500000e+01,   -2.800000e+01
    3252,    3.500000e+01,    3.500000e+01,   -3.150000e+01
    3253,    3.150000e+01,    3.500000e+01,    3.150000e+01
    3254,    3.150000e+01,    3.500000e+01,    2.800000e+01
    3255,    3.150000e+01,    3.500000e+01,    2.450000e+01
    3256,    3.150000e+01,    3.500000e+01,    2.100000e+01
    3257,    3.150000e+01,    3.500000e+01,    1.750000e+01
    3258,    3.150000e+01,    3.500000e+01,    1.400000e+01
    3259,    3.150000e+01,    3.500000e+01,    1.050000e+01
    3260,    3.150000e+01,    3.500000e+01,    7.000000e+00
    3261,    3.150000e+01,    3.500000e+01,    3.500000e+00
    3262,    3.150000e+01,    3.500000e+01,    0.000000e+00
    3263,    3.150000e+01,    3.500000e+01,   -3.500000e+00
    3264,    3.150000e+01,    3.500000e+01,   -7.000000e+00
    3265,    3.150000e+01,    3.500000e+01,   -1.050000e+01
    3266,    3.150000e+01,    3.500000e+01,   -1.400000e+01
    3267,    3.150000e+01,    3.500000e+01,   -1.750000e+01
    3268,    3.150000e+01,    3.500000e+01,   -2.100000e+01
    3269,    3.150000e+01,    3.500000e+01,   -2.450000e+01
    3270,    3.150000e+01,    3.500000e+01,   -2.800000e+01
    3271,    3.150000e+01,    3.500000e+01,   -3.150000e+01
    3272,    2.800000e+01,    3.500000e+01,    3.150000e+01
    3273,    2.800000e+01,    3.500000e+01,    2.800000e+01
    3274,    2.800000e+01,    3.500000e+01,    2.450000e+01
    3275,    2.800000e+01,    3.500000e+01,    2.100000e+01
    3276,    2.800000e+01,    3.500000e+01,    1.750000e+01
    3277,    2.800000e+01,    3.500000e+01,    1.400000e+01
    3278,    2.800000e+01,    3.500000e+01,    1.050000e+01
    3279,    2.800000e+01,    3.500000e+01,    7.000000e+00
    3280,    2.800000e+01,    3.500000e+01,    3.500000e+00
    3281,    2.800000e+01,    3.500000e+01,    0.000000e+00
    3282,    2.800000e+01,    3.500000e+01,   -3.500000e+00
    3283,    2.800000e+01,    3.500000e+01,   -7.000000e+00
    3284,    2.800000e+01,    3.500000e+01,   -1.050000e+01
    3285,    2.800000e+01,    3.500000e+01,   -1.400000e+01
    3286,    2.800000e+01,    3.500000e+01,   -1.750000e+01
    3287,    2.800000e+01,    3.500000e+01,   -2.100000e+01
    3288,    2.800000e+01,    3.500000e+01,   -2.450000e+01
    3289,    2.800000e+01,    3.500000e+01,   -2.800000e+01
    3290,    2.800000e+01,    3.500000e+01,   -3.150000e+01
    3291,    2.450000e+01,    3.500000e+01,    3.150000e+01
    3292,    2.450000e+01,    3.500000e+01,    2.800000e+01
    3293,    2.450000e+01,    3.500000e+01,    2.450000e+01
    3294,    2.450000e+01,    3.500000e+01,    2.100000e+01
    3295,    2.450000e+01,    3.500000e+01,    1.750000e+01
    3296,    2.450000e+01,    3.500000e+01,    1.400000e+01
    3297,    2.450000e+01,    3.500000e+01,    1.050000e+01
    3298,    2.450000e+01,    3.500000e+01,    7.000000e+00
    3299,    2.450000e+01,    3.500000e+01,    3.500000e+00
    3300,    2.450000e+01,    3.500000e+01,    0.000000e+00
    3301,    2.450000e+01,    3.500000e+01,   -3.500000e+00
    3302,    2.450000e+01,    3.500000e+01,   -7.000000e+00
    3303,    2.450000e+01,    3.500000e+01,   -1.050000e+01
    3304,    2.450000e+01,    3.500000e+01,   -1.400000e+01
    3305,    2.450000e+01,    3.500000e+01,   -1.750000e+01
    3306,    2.450000e+01,    3.500000e+01,   -2.100000e+01
    3307,    2.450000e+01,    3.500000e+01,   -2.450000e+01
    3308,    2.450000e+01,    3.500000e+01,   -2.800000e+01
    3309,    2.450000e+01,    3.500000e+01,   -3.150000e+01
    3310,    2.100000e+01,    3.500000e+01,    3.150000e+01
    3311,    2.100000e+01,    3.500000e+01,    2.800000e+01
    3312,    2.100000e+01,    3.500000e+01,    2.450000e+01
    3313,    2.100000e+01,    3.500000e+01,    2.100000e+01
    3314,    2.100000e+01,    3.500000e+01,    1.750000e+01
    3315,    2.100000e+01,    3.500000e+01,    1.400000e+01
    3316,    2.100000e+01,    3.500000e+01,    1.050000e+01
    3317,    2.100000e+01,    3.500000e+01,    7.000000e+00
    3318,    2.100000e+01,    3.500000e+01,    3.500000e+00
    3319,    2.100000e+01,    3.500000e+01,    0.000000e+00
    3320,    2.100000e+01,    3.500000e+01,   -3.500000e+00
    3321,    2.100000e+01,    3.500000e+01,   -7.000000e+00
    3322,    2.100000e+01,    3.500000e+01,   -1.050000e+01
    3323,    2.100000e+01,    3.500000e+01,   -1.400000e+01
    3324,    2.100000e+01,    3.500000e+01,   -1.750000e+01
    3325,    2.100000e+01,    3.500000e+01,   -2.100000e+01
    3326,    2.100000e+01,    3.500000e+01,   -2.450000e+01
    3327,    2.100000e+01,    3.500000e+01,   -2.800000e+01
    3328,    2.100000e+01,    3.500000e+01,   -3.150000e+01
    3329,    1.750000e+01,    3.500000e+01,    3.150000e+01
    3330,    1.750000e+01,    3.500000e+01,    2.800000e+01
    3331,    1.750000e+01,    3.500000e+01,    2.450000e+01
    3332,    1.750000e+01,    3.500000e+01,    2.100000e+01
    3333,    1.750000e+01,    3.500000e+01,    1.750000e+01
    3334,    1.750000e+01,    3.500000e+01,    1.400000e+01
    3335,    1.750000e+01,    3.500000e+01,    1.050000e+01
    3336,    1.750000e+01,    3.500000e+01,    7.000000e+00
    3337,    1.750000e+01,    3.500000e+01,    3.500000e+00
    3338,    1.750000e+01,    3.500000e+01,    0.000000e+00
    3339,    1.750000e+01,    3.500000e+01,   -3.500000e+00
    3340,    1.750000e+01,    3.500000e+01,   -7.000000e+00
    3341,    1.750000e+01,    3.500000e+01,   -1.050000e+01
    3342,    1.750000e+01,    3.500000e+01,   -1.400000e+01
    3343,    1.750000e+01,    3.500000e+01,   -1.750000e+01
    3344,    1.750000e+01,    3.500000e+01,   -2.100000e+01
    3345,    1.750000e+01,    3.500000e+01,   -2.450000e+01
    3346,    1.750000e+01,    3.500000e+01,   -2.800000e+01
    3347,    1.750000e+01,    3.500000e+01,   -3.150000e+01
    3348,    1.400000e+01,    3.500000e+01,    3.150000e+01
    3349,    1.400000e+01,    3.500000e+01,    2.800000e+01
    3350,    1.400000e+01,    3.500000e+01,    2.450000e+01
    3351,    1.400000e+01,    3.500000e+01,    2.100000e+01
    3352,    1.400000e+01,    3.500000e+01,    1.750000e+01
    3353,    1.400000e+01,    3.500000e+01,    1.400000e+01
    3354,    1.400000e+01,    3.500000e+01,    1.050000e+01
    3355,    1.400000e+01,    3.500000e+01,    7.000000e+00
    3356,    1.400000e+01,    3.500000e+01,    3.500000e+00
    3357,    1.400000e+01,    3.500000e+01,    0.000000e+00
    3358,    1.400000e+01,    3.500000e+01,   -3.500000e+00
    3359,    1.400000e+01,    3.500000e+01,   -7.000000e+00
    3360,    1.400000e+01,    3.500000e+01,   -1.050000e+01
    3361,    1.400000e+01,    3.500000e+01,   -1.400000e+01
    3362,    1.400000e+01,    3.500000e+01,   -1.750000e+01
    3363,    1.400000e+01,    3.500000e+01,   -2.100000e+01
    3364,    1.400000e+01,    3.500000e+01,   -2.450000e+01
    3365,    1.400000e+01,    3.500000e+01,   -2.800000e+01
    3366,    1.400000e+01,    3.500000e+01,   -3.150000e+01
    3367,    1.050000e+01,    3.500000e+01,    3.150000e+01
    3368,    1.050000e+01,    3.500000e+01,    2.800000e+01
    3369,    1.050000e+01,    3.500000e+01,    2.450000e+01
    3370,    1.050000e+01,    3.500000e+01,    2.100000e+01
    3371,    1.050000e+01,    3.500000e+01,    1.750000e+01
    3372,    1.050000e+01,    3.500000e+01,    1.400000e+01
    3373,    1.050000e+01,    3.500000e+01,    1.050000e+01
    3374,    1.050000e+01,    3.500000e+01,    7.000000e+00
    3375,    1.050000e+01,    3.500000e+01,    3.500000e+00
    3376,    1.050000e+01,    3.500000e+01,    0.000000e+00
    3377,    1.050000e+01,    3.500000e+01,   -3.500000e+00
    3378,    1.050000e+01,    3.500000e+01,   -7.000000e+00
    3379,    1.050000e+01,    3.500000e+01,   -1.050000e+01
    3380,    1.050000e+01,    3.500000e+01,   -1.400000e+01
    3381,    1.050000e+01,    3.500000e+01,   -1.750000e+01
    3382,    1.050000e+01,    3.500000e+01,   -2.100000e+01
    3383,    1.050000e+01,    3.500000e+01,   -2.450000e+01
    3384,    1.050000e+01,    3.500000e+01,   -2.800000e+01
    3385,    1.050000e+01,    3.500000e+01,   -3.150000e+01
    3386,    7.000000e+00,    3.500000e+01,    3.150000e+01
    3387,    7.000000e+00,    3.500000e+01,    2.800000e+01
    3388,    7.000000e+00,    3.500000e+01,    2.450000e+01
    3389,    7.000000e+00,    3.500000e+01,    2.100000e+01
    3390,    7.000000e+00,    3.500000e+01,    1.750000e+01
    3391,    7.000000e+00,    3.500000e+01,    1.400000e+01
    3392,    7.000000e+00,    3.500000e+01,    1.050000e+01
    3393,    7.000000e+00,    3.500000e+01,    7.000000e+00
    3394,    7.000000e+00,    3.500000e+01,    3.500000e+00
    3395,    7.000000e+00,    3.500000e+01,    0.000000e+00
    3396,    7.000000e+00,    3.500000e+01,   -3.500000e+00
    3397,    7.000000e+00,    3.500000e+01,   -7.000000e+00
    3398,    7.000000e+00,    3.500000e+01,   -1.050000e+01
    3399,    7.000000e+00,    3.500000e+01,   -1.400000e+01
    3400,    7.000000e+00,    3.500000e+01,   -1.750000e+01
    3401,    7.000000e+00,    3.500000e+01,   -2.100000e+01
    3402,    7.000000e+00,    3.500000e+01,   -2.450000e+01
    3403,    7.000000e+00,    3.500000e+01,   -2.800000e+01
    3404,    7.000000e+00,    3.500000e+01,   -3.150000e+01
    3405,    3.500000e+00,    3.500000e+01,    3.150000e+01
    3406,    3.500000e+00,    3.500000e+01,    2.800000e+01
    3407,    3.500000e+00,    3.500000e+01,    2.450000e+01
    3408,    3.500000e+00,    3.500000e+01,    2.100000e+01
    3409,    3.500000e+00,    3.500000e+01,    1.750000e+01
    3410,    3.500000e+00,    3.500000e+01,    1.400000e+01
    3411,    3.500000e+00,    3.500000e+01,    1.050000e+01
    3412,    3.500000e+00,    3.500000e+01,    7.000000e+00
    3413,    3.500000e+00,    3.500000e+01,    3.500000e+00
    3414,    3.500000e+00,    3.500000e+01,    0.000000e+00
    3415,    3.500000e+00,    3.500000e+01,   -3.500000e+00
    3416,    3.500000e+00,    3.500000e+01,   -7.000000e+00
    3417,    3.500000e+00,    3.500000e+01,   -1.050000e+01
    3418,    3.500000e+00,    3.500000e+01,   -1.400000e+01
    3419,    3.500000e+00,    3.500000e+01,   -1.750000e+01
    3420,    3.500000e+00,    3.500000e+01,   -2.100000e+01
    3421,    3.500000e+00,    3.500000e+01,   -2.450000e+01
    3422,    3.500000e+00,    3.500000e+01,   -2.800000e+01
    3423,    3.500000e+00,    3.500000e+01,   -3.150000e+01
    3424,    3.500000e+01,    3.500000e+00,    3.150000e+01
    3425,    3.500000e+01,    3.500000e+00,    2.800000e+01
    3426,    3.500000e+01,    3.500000e+00,    2.450000e+01
    3427,    3.500000e+01,    3.500000e+00,    2.100000e+01
    3428,    3.500000e+01,    3.500000e+00,    1.750000e+01
    3429,    3.500000e+01,    3.500000e+00,    1.400000e+01
    3430,    3.500000e+01,    3.500000e+00,    1.050000e+01
    3431,    3.500000e+01,    3.500000e+00,    7.000000e+00
    3432,    3.500000e+01,    3.500000e+00,    3.500000e+00
    3433,    3.500000e+01,    3.500000e+00,    0.000000e+00
    3434,    3.500000e+01,    3.500000e+00,   -3.500000e+00
    3435,    3.500000e+01,    3.500000e+00,   -7.000000e+00
    3436,    3.500000e+01,    3.500000e+00,   -1.050000e+01
    3437,    3.500000e+01,    3.500000e+00,   -1.400000e+01
    3438,    3.500000e+01,    3.500000e+00,   -1.750000e+01
    3439,    3.500000e+01,    3.500000e+00,   -2.100000e+01
    3440,    3.500000e+01,    3.500000e+00,   -2.450000e+01
    3441,    3.500000e+01,    3.500000e+00,   -2.800000e+01
    3442,    3.500000e+01,    3.500000e+00,   -3.150000e+01
    3443,    3.500000e+01,    7.000000e+00,    3.150000e+01
    3444,    3.500000e+01,    7.000000e+00,    2.800000e+01
    3445,    3.500000e+01,    7.000000e+00,    2.450000e+01
    3446,    3.500000e+01,    7.000000e+00,    2.100000e+01
    3447,    3.500000e+01,    7.000000e+00,    1.750000e+01
    3448,    3.500000e+01,    7.000000e+00,    1.400000e+01
    3449,    3.500000e+01,    7.000000e+00,    1.050000e+01
    3450,    3.500000e+01,    7.000000e+00,    7.000000e+00
    3451,    3.500000e+01,    7.000000e+00,    3.500000e+00
    3452,    3.500000e+01,    7.000000e+00,    0.000000e+00
    3453,    3.500000e+01,    7.000000e+00,   -3.500000e+00
    3454,    3.500000e+01,    7.000000e+00,   -7.000000e+00
    3455,    3.500000e+01,    7.000000e+00,   -1.050000e+01
    3456,    3.500000e+01,    7.000000e+00,   -1.400000e+01
    3457,    3.500000e+01,    7.000000e+00,   -1.750000e+01
    3458,    3.500000e+01,    7.000000e+00,   -2.100000e+01
    3459,    3.500000e+01,    7.000000e+00,   -2.450000e+01
    3460,    3.500000e+01,    7.000000e+00,   -2.800000e+01
    3461,    3.500000e+01,    7.000000e+00,   -3.150000e+01
    3462,    3.500000e+01,    1.050000e+01,    3.150000e+01
    3463,    3.500000e+01,    1.050000e+01,    2.800000e+01
    3464,    3.500000e+01,    1.050000e+01,    2.450000e+01
    3465,    3.500000e+01,    1.050000e+01,    2.100000e+01
    3466,    3.500000e+01,    1.050000e+01,    1.750000e+01
    3467,    3.500000e+01,    1.050000e+01,    1.400000e+01
    3468,    3.500000e+01,    1.050000e+01,    1.050000e+01
    3469,    3.500000e+01,    1.050000e+01,    7.000000e+00
    3470,    3.500000e+01,    1.050000e+01,    3.500000e+00
    3471,    3.500000e+01,    1.050000e+01,    0.000000e+00
    3472,    3.500000e+01,    1.050000e+01,   -3.500000e+00
    3473,    3.500000e+01,    1.050000e+01,   -7.000000e+00
    3474,    3.500000e+01,    1.050000e+01,   -1.050000e+01
    3475,    3.500000e+01,    1.050000e+01,   -1.400000e+01
    3476,    3.500000e+01,    1.050000e+01,   -1.750000e+01
    3477,    3.500000e+01,    1.050000e+01,   -2.100000e+01
    3478,    3.500000e+01,    1.050000e+01,   -2.450000e+01
    3479,    3.500000e+01,    1.050000e+01,   -2.800000e+01
    3480,    3.500000e+01,    1.050000e+01,   -3.150000e+01
    3481,    3.500000e+01,    1.400000e+01,    3.150000e+01
    3482,    3.500000e+01,    1.400000e+01,    2.800000e+01
    3483,    3.500000e+01,    1.400000e+01,    2.450000e+01
    3484,    3.500000e+01,    1.400000e+01,    2.100000e+01
    3485,    3.500000e+01,    1.400000e+01,    1.750000e+01
    3486,    3.500000e+01,    1.400000e+01,    1.400000e+01
    3487,    3.500000e+01,    1.400000e+01,    1.050000e+01
    3488,    3.500000e+01,    1.400000e+01,    7.000000e+00
    3489,    3.500000e+01,    1.400000e+01,    3.500000e+00
    3490,    3.500000e+01,    1.400000e+01,    0.000000e+00
    3491,    3.500000e+01,    1.400000e+01,   -3.500000e+00
    3492,    3.500000e+01,    1.400000e+01,   -7.000000e+00
    3493,    3.500000e+01,    1.400000e+01,   -1.050000e+01
    3494,    3.500000e+01,    1.400000e+01,   -1.400000e+01
    3495,    3.500000e+01,    1.400000e+01,   -1.750000e+01
    3496,    3.500000e+01,    1.400000e+01,   -2.100000e+01
    3497,    3.500000e+01,    1.400000e+01,   -2.450000e+01
    3498,    3.500000e+01,    1.400000e+01,   -2.800000e+01
    3499,    3.500000e+01,    1.400000e+01,   -3.150000e+01
    3500,    3.500000e+01,    1.750000e+01,    3.150000e+01
    3501,    3.500000e+01,    1.750000e+01,    2.800000e+01
    3502,    3.500000e+01,    1.750000e+01,    2.450000e+01
    3503,    3.500000e+01,    1.750000e+01,    2.100000e+01
    3504,    3.500000e+01,    1.750000e+01,    1.750000e+01
    3505,    3.500000e+01,    1.750000e+01,    1.400000e+01
    3506,    3.500000e+01,    1.750000e+01,    1.050000e+01
    3507,    3.500000e+01,    1.750000e+01,    7.000000e+00
    3508,    3.500000e+01,    1.750000e+01,    3.500000e+00
    3509,    3.500000e+01,    1.750000e+01,    0.000000e+00
    3510,    3.500000e+01,    1.750000e+01,   -3.500000e+00
    3511,    3.500000e+01,    1.750000e+01,   -7.000000e+00
    3512,    3.500000e+01,    1.750000e+01,   -1.050000e+01
    3513,    3.500000e+01,    1.750000e+01,   -1.400000e+01
    3514,    3.500000e+01,    1.750000e+01,   -1.750000e+01
    3515,    3.500000e+01,    1.750000e+01,   -2.100000e+01
    3516,    3.500000e+01,    1.750000e+01,   -2.450000e+01
    3517,    3.500000e+01,    1.750000e+01,   -2.800000e+01
    3518,    3.500000e+01,    1.750000e+01,   -3.150000e+01
    3519,    3.500000e+01,    2.100000e+01,    3.150000e+01
    3520,    3.500000e+01,    2.100000e+01,    2.800000e+01
    3521,    3.500000e+01,    2.100000e+01,    2.450000e+01
    3522,    3.500000e+01,    2.100000e+01,    2.100000e+01
    3523,    3.500000e+01,    2.100000e+01,    1.750000e+01
    3524,    3.500000e+01,    2.100000e+01,    1.400000e+01
    3525,    3.500000e+01,    2.100000e+01,    1.050000e+01
    3526,    3.500000e+01,    2.100000e+01,    7.000000e+00
    3527,    3.500000e+01,    2.100000e+01,    3.500000e+00
    3528,    3.500000e+01,    2.100000e+01,    0.000000e+00
    3529,    3.500000e+01,    2.100000e+01,   -3.500000e+00
    3530,    3.500000e+01,    2.100000e+01,   -7.000000e+00
    3531,    3.500000e+01,    2.100000e+01,   -1.050000e+01
    3532,    3.500000e+01,    2.100000e+01,   -1.400000e+01
    3533,    3.500000e+01,    2.100000e+01,   -1.750000e+01
    3534,    3.500000e+01,    2.100000e+01,   -2.100000e+01
    3535,    3.500000e+01,    2.100000e+01,   -2.450000e+01
    3536,    3.500000e+01,    2.100000e+01,   -2.800000e+01
    3537,    3.500000e+01,    2.100000e+01,   -3.150000e+01
    3538,    3.500000e+01,    2.450000e+01,    3.150000e+01
    3539,    3.500000e+01,    2.450000e+01,    2.800000e+01
    3540,    3.500000e+01,    2.450000e+01,    2.450000e+01
    3541,    3.500000e+01,    2.450000e+01,    2.100000e+01
    3542,    3.500000e+01,    2.450000e+01,    1.750000e+01
    3543,    3.500000e+01,    2.450000e+01,    1.400000e+01
    3544,    3.500000e+01,    2.450000e+01,    1.050000e+01
    3545,    3.500000e+01,    2.450000e+01,    7.000000e+00
    3546,    3.500000e+01,    2.450000e+01,    3.500000e+00
    3547,    3.500000e+01,    2.450000e+01,    0.000000e+00
    3548,    3.500000e+01,    2.450000e+01,   -3.500000e+00
    3549,    3.500000e+01,    2.450000e+01,   -7.000000e+00
    3550,    3.500000e+01,    2.450000e+01,   -1.050000e+01
    3551,    3.500000e+01,    2.450000e+01,   -1.400000e+01
    3552,    3.500000e+01,    2.450000e+01,   -1.750000e+01
    3553,    3.500000e+01,    2.450000e+01,   -2.100000e+01
    3554,    3.500000e+01,    2.450000e+01,   -2.450000e+01
    3555,    3.500000e+01,    2.450000e+01,   -2.800000e+01
    3556,    3.500000e+01,    2.450000e+01,   -3.150000e+01
    3557,    3.500000e+01,    2.800000e+01,    3.150000e+01
    3558,    3.500000e+01,    2.800000e+01,    2.800000e+01
    3559,    3.500000e+01,    2.800000e+01,    2.450000e+01
    3560,    3.500000e+01,    2.800000e+01,    2.100000e+01
    3561,    3.500000e+01,    2.800000e+01,    1.750000e+01
    3562,    3.500000e+01,    2.800000e+01,    1.400000e+01
    3563,    3.500000e+01,    2.800000e+01,    1.050000e+01
    3564,    3.500000e+01,    2.800000e+01,    7.000000e+00
    3565,    3.500000e+01,    2.800000e+01,    3.500000e+00
    3566,    3.500000e+01,    2.800000e+01,    0.000000e+00
    3567,    3.500000e+01,    2.800000e+01,   -3.500000e+00
    3568,    3.500000e+01,    2.800000e+01,   -7.000000e+00
    3569,    3.500000e+01,    2.800000e+01,   -1.050000e+01
    3570,    3.500000e+01,    2.800000e+01,   -1.400000e+01
    3571,    3.500000e+01,    2.800000e+01,   -1.750000e+01
    3572,    3.500000e+01,    2.800000e+01,   -2.100000e+01
    3573,    3.500000e+01,    2.800000e+01,   -2.450000e+01
    3574,    3.500000e+01,    2.800000e+01,   -2.800000e+01
    3575,    3.500000e+01,    2.800000e+01,   -3.150000e+01
    3576,    3.500000e+01,    3.150000e+01,    3.150000e+01
    3577,    3.500000e+01,    3.150000e+01,    2.800000e+01
    3578,    3.500000e+01,    3.150000e+01,    2.450000e+01
    3579,    3.500000e+01,    3.150000e+01,    2.100000e+01
    3580,    3.500000e+01,    3.150000e+01,    1.750000e+01
    3581,    3.500000e+01,    3.150000e+01,    1.400000e+01
    3582,    3.500000e+01,    3.150000e+01,    1.050000e+01
    3583,    3.500000e+01,    3.150000e+01,    7.000000e+00
    3584,    3.500000e+01,    3.150000e+01,    3.500000e+00
    3585,    3.500000e+01,    3.150000e+01,    0.000000e+00
    3586,    3.500000e+01,    3.150000e+01,   -3.500000e+00
    3587,    3.500000e+01,    3.150000e+01,   -7.000000e+00
    3588,    3.500000e+01,    3.150000e+01,   -1.050000e+01
    3589,    3.500000e+01,    3.150000e+01,   -1.400000e+01
    3590,    3.500000e+01,    3.150000e+01,   -1.750000e+01
    3591,    3.500000e+01,    3.150000e+01,   -2.100000e+01
    3592,    3.500000e+01,    3.150000e+01,   -2.450000e+01
    3593,    3.500000e+01,    3.150000e+01,   -2.800000e+01
    3594,    3.500000e+01,    3.150000e+01,   -3.150000e+01
    3595,    1.750000e+01,    1.400000e+01,    1.400000e+01
    3596,    2.100000e+01,    1.400000e+01,    1.400000e+01
    3597,    2.450000e+01,    1.400000e+01,    1.400000e+01
    3598,    2.800000e+01,    1.400000e+01,    1.400000e+01
    3599,    3.150000e+01,    1.400000e+01,    1.400000e+01
    3600,    3.500000e+00,    1.750000e+01,    1.400000e+01
    3601,    3.500000e+00,    2.100000e+01,    1.400000e+01
    3602,    3.500000e+00,    2.450000e+01,    1.400000e+01
    3603,    3.500000e+00,    2.800000e+01,    1.400000e+01
    3604,    3.500000e+00,    3.150000e+01,    1.400000e+01
    3605,    7.000000e+00,    1.750000e+01,    1.400000e+01
    3606,    7.000000e+00,    2.100000e+01,    1.400000e+01
    3607,    7.000000e+00,    2.450000e+01,    1.400000e+01
    3608,    7.000000e+00,    2.800000e+01,    1.400000e+01
    3609,    7.000000e+00,    3.150000e+01,    1.400000e+01
    3610,    1.050000e+01,    1.750000e+01,    1.400000e+01
    3611,    1.050000e+01,    2.100000e+01,    1.400000e+01
    3612,    1.050000e+01,    2.450000e+01,    1.400000e+01
    3613,    1.050000e+01,    2.800000e+01,    1.400000e+01
    3614,    1.050000e+01,    3.150000e+01,    1.400000e+01
    3615,    1.400000e+01,    1.750000e+01,    1.400000e+01
    3616,    1.400000e+01,    2.100000e+01,    1.400000e+01
    3617,    1.400000e+01,    2.450000e+01,    1.400000e+01
    3618,    1.400000e+01,    2.800000e+01,    1.400000e+01
    3619,    1.400000e+01,    3.150000e+01,    1.400000e+01
    3620,    1.750000e+01,    1.750000e+01,    1.400000e+01
    3621,    1.750000e+01,    2.100000e+01,    1.400000e+01
    3622,    1.750000e+01,    2.450000e+01,    1.400000e+01
    3623,    1.750000e+01,    2.800000e+01,    1.400000e+01
    3624,    1.750000e+01,    3.150000e+01,    1.400000e+01
    3625,    2.100000e+01,    1.750000e+01,    1.400000e+01
    3626,    2.100000e+01,    2.100000e+01,    1.400000e+01
    3627,    2.100000e+01,    2.450000e+01,    1.400000e+01
    3628,    2.100000e+01,    2.800000e+01,    1.400000e+01
    3629,    2.100000e+01,    3.150000e+01,    1.400000e+01
    3630,    2.450000e+01,    1.750000e+01,    1.400000e+01
    3631,    2.450000e+01,    2.100000e+01,    1.400000e+01
    3632,    2.450000e+01,    2.450000e+01,    1.400000e+01
    3633,    2.450000e+01,    2.800000e+01,    1.400000e+01
    3634,    2.450000e+01,    3.150000e+01,    1.400000e+01
    3635,    2.800000e+01,    1.750000e+01,    1.400000e+01
    3636,    2.800000e+01,    2.100000e+01,    1.400000e+01
    3637,    2.800000e+01,    2.450000e+01,    1.400000e+01
    3638,    2.800000e+01,    2.800000e+01,    1.400000e+01
    3639,    2.800000e+01,    3.150000e+01,    1.400000e+01
    3640,    3.150000e+01,    1.750000e+01,    1.400000e+01
    3641,    3.150000e+01,    2.100000e+01,    1.400000e+01
    3642,    3.150000e+01,    2.450000e+01,    1.400000e+01
    3643,    3.150000e+01,    2.800000e+01,    1.400000e+01
    3644,    3.150000e+01,    3.150000e+01,    1.400000e+01
    3645,    3.150000e+01,    1.050000e+01,    1.400000e+01
    3646,    3.150000e+01,    7.000000e+00,    1.400000e+01
    3647,    3.150000e+01,    3.500000e+00,    1.400000e+01
    3648,    2.800000e+01,    1.050000e+01,    1.400000e+01
    3649,    2.800000e+01,    7.000000e+00,    1.400000e+01
    3650,    2.800000e+01,    3.500000e+00,    1.400000e+01
    3651,    2.450000e+01,    1.050000e+01,    1.400000e+01
    3652,    2.450000e+01,    7.000000e+00,    1.400000e+01
    3653,    2.450000e+01,    3.500000e+00,    1.400000e+01
    3654,    2.100000e+01,    1.050000e+01,    1.400000e+01
    3655,    2.100000e+01,    7.000000e+00,    1.400000e+01
    3656,    2.100000e+01,    3.500000e+00,    1.400000e+01
    3657,    1.750000e+01,    1.050000e+01,    1.400000e+01
    3658,    1.750000e+01,    7.000000e+00,    1.400000e+01
    3659,    1.750000e+01,    3.500000e+00,    1.400000e+01
    3660,    3.500000e+00,    3.500000e+00,   -3.150000e+01
    3661,    7.000000e+00,    3.500000e+00,   -3.150000e+01
    3662,    1.050000e+01,    3.500000e+00,   -3.150000e+01
    3663,    1.400000e+01,    3.500000e+00,   -3.150000e+01
    3664,    1.750000e+01,    3.500000e+00,   -3.150000e+01
    3665,    2.100000e+01,    3.500000e+00,   -3.150000e+01
    3666,    2.450000e+01,    3.500000e+00,   -3.150000e+01
    3667,    2.800000e+01,    3.500000e+00,   -3.150000e+01
    3668,    3.150000e+01,    3.500000e+00,   -3.150000e+01
    3669,    3.500000e+00,    7.000000e+00,   -3.150000e+01
    3670,    7.000000e+00,    7.000000e+00,   -3.150000e+01
    3671,    1.050000e+01,    7.000000e+00,   -3.150000e+01
    3672,    1.400000e+01,    7.000000e+00,   -3.150000e+01
    3673,    1.750000e+01,    7.000000e+00,   -3.150000e+01
    3674,    2.100000e+01,    7.000000e+00,   -3.150000e+01
    3675,    2.450000e+01,    7.000000e+00,   -3.150000e+01
    3676,    2.800000e+01,    7.000000e+00,   -3.150000e+01
    3677,    3.150000e+01,    7.000000e+00,   -3.150000e+01
    3678,    3.500000e+00,    1.050000e+01,   -3.150000e+01
    3679,    7.000000e+00,    1.050000e+01,   -3.150000e+01
    3680,    1.050000e+01,    1.050000e+01,   -3.150000e+01
    3681,    1.400000e+01,    1.050000e+01,   -3.150000e+01
    3682,    1.750000e+01,    1.050000e+01,   -3.150000e+01
    3683,    2.100000e+01,    1.050000e+01,   -3.150000e+01
    3684,    2.450000e+01,    1.050000e+01,   -3.150000e+01
    3685,    2.800000e+01,    1.050000e+01,   -3.150000e+01
    3686,    3.150000e+01,    1.050000e+01,   -3.150000e+01
    3687,    3.500000e+00,    1.400000e+01,   -3.150000e+01
    3688,    7.000000e+00,    1.400000e+01,   -3.150000e+01
    3689,    1.050000e+01,    1.400000e+01,   -3.150000e+01
    3690,    1.400000e+01,    1.400000e+01,   -3.150000e+01
    3691,    1.750000e+01,    1.400000e+01,   -3.150000e+01
    3692,    2.100000e+01,    1.400000e+01,   -3.150000e+01
    3693,    2.450000e+01,    1.400000e+01,   -3.150000e+01
    3694,    2.800000e+01,    1.400000e+01,   -3.150000e+01
    3695,    3.150000e+01,    1.400000e+01,   -3.150000e+01
    3696,    3.500000e+00,    1.750000e+01,   -3.150000e+01
    3697,    7.000000e+00,    1.750000e+01,   -3.150000e+01
    3698,    1.050000e+01,    1.750000e+01,   -3.150000e+01
    3699,    1.400000e+01,    1.750000e+01,   -3.150000e+01
    3700,    1.750000e+01,    1.750000e+01,   -3.150000e+01
    3701,    2.100000e+01,    1.750000e+01,   -3.150000e+01
    3702,    2.450000e+01,    1.750000e+01,   -3.150000e+01
    3703,    2.800000e+01,    1.750000e+01,   -3.150000e+01
    3704,    3.150000e+01,    1.750000e+01,   -3.150000e+01
    3705,    3.500000e+00,    2.100000e+01,   -3.150000e+01
    3706,    7.000000e+00,    2.100000e+01,   -3.150000e+01
    3707,    1.050000e+01,    2.100000e+01,   -3.150000e+01
    3708,    1.400000e+01,    2.100000e+01,   -3.150000e+01
    3709,    1.750000e+01,    2.100000e+01,   -3.150000e+01
    3710,    2.100000e+01,    2.100000e+01,   -3.150000e+01
    3711,    2.450000e+01,    2.100000e+01,   -3.150000e+01
    3712,    2.800000e+01,    2.100000e+01,   -3.150000e+01
    3713,    3.150000e+01,    2.100000e+01,   -3.150000e+01
    3714,    3.500000e+00,    2.450000e+01,   -3.150000e+01
    3715,    7.000000e+00,    2.450000e+01,   -3.150000e+01
    3716,    1.050000e+01,    2.450000e+01,   -3.150000e+01
    3717,    1.400000e+01,    2.450000e+01,   -3.150000e+01
    3718,    1.750000e+01,    2.450000e+01,   -3.150000e+01
    3719,    2.100000e+01,    2.450000e+01,   -3.150000e+01
    3720,    2.450000e+01,    2.450000e+01,   -3.150000e+01
    3721,    2.800000e+01,    2.450000e+01,   -3.150000e+01
    3722,    3.150000e+01,    2.450000e+01,   -3.150000e+01
    3723,    3.500000e+00,    2.800000e+01,   -3.150000e+01
    3724,    7.000000e+00,    2.800000e+01,   -3.150000e+01
    3725,    1.050000e+01,    2.800000e+01,   -3.150000e+01
    3726,    1.400000e+01,    2.800000e+01,   -3.150000e+01
    3727,    1.750000e+01,    2.800000e+01,   -3.150000e+01
    3728,    2.100000e+01,    2.800000e+01,   -3.150000e+01
    3729,    2.450000e+01,    2.800000e+01,   -3.150000e+01
    3730,    2.800000e+01,    2.800000e+01,   -3.150000e+01
    3731,    3.150000e+01,    2.800000e+01,   -3.150000e+01
    3732,    3.500000e+00,    3.150000e+01,   -3.150000e+01
    3733,    7.000000e+00,    3.150000e+01,   -3.150000e+01
    3734,    1.050000e+01,    3.150000e+01,   -3.150000e+01
    3735,    1.400000e+01,    3.150000e+01,   -3.150000e+01
    3736,    1.750000e+01,    3.150000e+01,   -3.150000e+01
    3737,    2.100000e+01,    3.150000e+01,   -3.150000e+01
    3738,    2.450000e+01,    3.150000e+01,   -3.150000e+01
    3739,    2.800000e+01,    3.150000e+01,   -3.150000e+01
    3740,    3.150000e+01,    3.150000e+01,   -3.150000e+01
    3741,    3.500000e+00,    3.500000e+00,   -2.800000e+01
    3742,    7.000000e+00,    3.500000e+00,   -2.800000e+01
    3743,    1.050000e+01,    3.500000e+00,   -2.800000e+01
    3744,    1.400000e+01,    3.500000e+00,   -2.800000e+01
    3745,    1.750000e+01,    3.500000e+00,   -2.800000e+01
    3746,    2.100000e+01,    3.500000e+00,   -2.800000e+01
    3747,    2.450000e+01,    3.500000e+00,   -2.800000e+01
    3748,    2.800000e+01,    3.500000e+00,   -2.800000e+01
    3749,    3.150000e+01,    3.500000e+00,   -2.800000e+01
    3750,    3.500000e+00,    7.000000e+00,   -2.800000e+01
    3751,    7.000000e+00,    7.000000e+00,   -2.800000e+01
    3752,    1.050000e+01,    7.000000e+00,   -2.800000e+01
    3753,    1.400000e+01,    7.000000e+00,   -2.800000e+01
    3754,    1.750000e+01,    7.000000e+00,   -2.800000e+01
    3755,    2.100000e+01,    7.000000e+00,   -2.800000e+01
    3756,    2.450000e+01,    7.000000e+00,   -2.800000e+01
    3757,    2.800000e+01,    7.000000e+00,   -2.800000e+01
    3758,    3.150000e+01,    7.000000e+00,   -2.800000e+01
    3759,    3.500000e+00,    1.050000e+01,   -2.800000e+01
    3760,    7.000000e+00,    1.050000e+01,   -2.800000e+01
    3761,    1.050000e+01,    1.050000e+01,   -2.800000e+01
    3762,    1.400000e+01,    1.050000e+01,   -2.800000e+01
    3763,    1.750000e+01,    1.050000e+01,   -2.800000e+01
    3764,    2.100000e+01,    1.050000e+01,   -2.800000e+01
    3765,    2.450000e+01,    1.050000e+01,   -2.800000e+01
    3766,    2.800000e+01,    1.050000e+01,   -2.800000e+01
    3767,    3.150000e+01,    1.050000e+01,   -2.800000e+01
    3768,    3.500000e+00,    1.400000e+01,   -2.800000e+01
    3769,    7.000000e+00,    1.400000e+01,   -2.800000e+01
    3770,    1.050000e+01,    1.400000e+01,   -2.800000e+01
    3771,    1.400000e+01,    1.400000e+01,   -2.800000e+01
    3772,    1.750000e+01,    1.400000e+01,   -2.800000e+01
    3773,    2.100000e+01,    1.400000e+01,   -2.800000e+01
    3774,    2.450000e+01,    1.400000e+01,   -2.800000e+01
    3775,    2.800000e+01,    1.400000e+01,   -2.800000e+01
    3776,    3.150000e+01,    1.400000e+01,   -2.800000e+01
    3777,    3.500000e+00,    1.750000e+01,   -2.800000e+01
    3778,    7.000000e+00,    1.750000e+01,   -2.800000e+01
    3779,    1.050000e+01,    1.750000e+01,   -2.800000e+01
    3780,    1.400000e+01,    1.750000e+01,   -2.800000e+01
    3781,    1.750000e+01,    1.750000e+01,   -2.800000e+01
    3782,    2.100000e+01,    1.750000e+01,   -2.800000e+01
    3783,    2.450000e+01,    1.750000e+01,   -2.800000e+01
    3784,    2.800000e+01,    1.750000e+01,   -2.800000e+01
    3785,    3.150000e+01,    1.750000e+01,   -2.800000e+01
    3786,    3.500000e+00,    2.100000e+01,   -2.800000e+01
    3787,    7.000000e+00,    2.100000e+01,   -2.800000e+01
    3788,    1.050000e+01,    2.100000e+01,   -2.800000e+01
    3789,    1.400000e+01,    2.100000e+01,   -2.800000e+01
    3790,    1.750000e+01,    2.100000e+01,   -2.800000e+01
    3791,    2.100000e+01,    2.100000e+01,   -2.800000e+01
    3792,    2.450000e+01,    2.100000e+01,   -2.800000e+01
    3793,    2.800000e+01,    2.100000e+01,   -2.800000e+01
    3794,    3.150000e+01,    2.100000e+01,   -2.800000e+01
    3795,    3.500000e+00,    2.450000e+01,   -2.800000e+01
    3796,    7.000000e+00,    2.450000e+01,   -2.800000e+01
    3797,    1.050000e+01,    2.450000e+01,   -2.800000e+01
    3798,    1.400000e+01,    2.450000e+01,   -2.800000e+01
    3799,    1.750000e+01,    2.450000e+01,   -2.800000e+01
    3800,    2.100000e+01,    2.450000e+01,   -2.800000e+01
    3801,    2.450000e+01,    2.450000e+01,   -2.800000e+01
    3802,    2.800000e+01,    2.450000e+01,   -2.800000e+01
    3803,    3.150000e+01,    2.450000e+01,   -2.800000e+01
    3804,    3.500000e+00,    2.800000e+01,   -2.800000e+01
    3805,    7.000000e+00,    2.800000e+01,   -2.800000e+01
    3806,    1.050000e+01,    2.800000e+01,   -2.800000e+01
    3807,    1.400000e+01,    2.800000e+01,   -2.800000e+01
    3808,    1.750000e+01,    2.800000e+01,   -2.800000e+01
    3809,    2.100000e+01,    2.800000e+01,   -2.800000e+01
    3810,    2.450000e+01,    2.800000e+01,   -2.800000e+01
    3811,    2.800000e+01,    2.800000e+01,   -2.800000e+01
    3812,    3.150000e+01,    2.800000e+01,   -2.800000e+01
    3813,    3.500000e+00,    3.150000e+01,   -2.800000e+01
    3814,    7.000000e+00,    3.150000e+01,   -2.800000e+01
    3815,    1.050000e+01,    3.150000e+01,   -2.800000e+01
    3816,    1.400000e+01,    3.150000e+01,   -2.800000e+01
    3817,    1.750000e+01,    3.150000e+01,   -2.800000e+01
    3818,    2.100000e+01,    3.150000e+01,   -2.800000e+01
    3819,    2.450000e+01,    3.150000e+01,   -2.800000e+01
    3820,    2.800000e+01,    3.150000e+01,   -2.800000e+01
    3821,    3.150000e+01,    3.150000e+01,   -2.800000e+01
    3822,    3.500000e+00,    3.500000e+00,   -2.450000e+01
    3823,    7.000000e+00,    3.500000e+00,   -2.450000e+01
    3824,    1.050000e+01,    3.500000e+00,   -2.450000e+01
    3825,    1.400000e+01,    3.500000e+00,   -2.450000e+01
    3826,    1.750000e+01,    3.500000e+00,   -2.450000e+01
    3827,    2.100000e+01,    3.500000e+00,   -2.450000e+01
    3828,    2.450000e+01,    3.500000e+00,   -2.450000e+01
    3829,    2.800000e+01,    3.500000e+00,   -2.450000e+01
    3830,    3.150000e+01,    3.500000e+00,   -2.450000e+01
    3831,    3.500000e+00,    7.000000e+00,   -2.450000e+01
    3832,    7.000000e+00,    7.000000e+00,   -2.450000e+01
    3833,    1.050000e+01,    7.000000e+00,   -2.450000e+01
    3834,    1.400000e+01,    7.000000e+00,   -2.450000e+01
    3835,    1.750000e+01,    7.000000e+00,   -2.450000e+01
    3836,    2.100000e+01,    7.000000e+00,   -2.450000e+01
    3837,    2.450000e+01,    7.000000e+00,   -2.450000e+01
    3838,    2.800000e+01,    7.000000e+00,   -2.450000e+01
    3839,    3.150000e+01,    7.000000e+00,   -2.450000e+01
    3840,    3.500000e+00,    1.050000e+01,   -2.450000e+01
    3841,    7.000000e+00,    1.050000e+01,   -2.450000e+01
    3842,    1.050000e+01,    1.050000e+01,   -2.450000e+01
    3843,    1.400000e+01,    1.050000e+01,   -2.450000e+01
    3844,    1.750000e+01,    1.050000e+01,   -2.450000e+01
    3845,    2.100000e+01,    1.050000e+01,   -2.450000e+01
    3846,    2.450000e+01,    1.050000e+01,   -2.450000e+01
    3847,    2.800000e+01,    1.050000e+01,   -2.450000e+01
    3848,    3.150000e+01,    1.050000e+01,   -2.450000e+01
    3849,    3.500000e+00,    1.400000e+01,   -2.450000e+01
    3850,    7.000000e+00,    1.400000e+01,   -2.450000e+01
    3851,    1.050000e+01,    1.400000e+01,   -2.450000e+01
    3852,    1.400000e+01,    1.400000e+01,   -2.450000e+01
    3853,    1.750000e+01,    1.400000e+01,   -2.450000e+01
    3854,    2.100000e+01,    1.400000e+01,   -2.450000e+01
    3855,    2.450000e+01,    1.400000e+01,   -2.450000e+01
    3856,    2.800000e+01,    1.400000e+01,   -2.450000e+01
    3857,    3.150000e+01,    1.400000e+01,   -2.450000e+01
    3858,    3.500000e+00,    1.750000e+01,   -2.450000e+01
    3859,    7.000000e+00,    1.750000e+01,   -2.450000e+01
    3860,    1.050000e+01,    1.750000e+01,   -2.450000e+01
    3861,    1.400000e+01,    1.750000e+01,   -2.450000e+01
    3862,    1.750000e+01,    1.750000e+01,   -2.450000e+01
    3863,    2.100000e+01,    1.750000e+01,   -2.450000e+01
    3864,    2.450000e+01,    1.750000e+01,   -2.450000e+01
    3865,    2.800000e+01,    1.750000e+01,   -2.450000e+01
    3866,    3.150000e+01,    1.750000e+01,   -2.450000e+01
    3867,    3.500000e+00,    2.100000e+01,   -2.450000e+01
    3868,    7.000000e+00,    2.100000e+01,   -2.450000e+01
    3869,    1.050000e+01,    2.100000e+01,   -2.450000e+01
    3870,    1.400000e+01,    2.100000e+01,   -2.450000e+01
    3871,    1.750000e+01,    2.100000e+01,   -2.450000e+01
    3872,    2.100000e+01,    2.100000e+01,   -2.450000e+01
    3873,    2.450000e+01,    2.100000e+01,   -2.450000e+01
    3874,    2.800000e+01,    2.100000e+01,   -2.450000e+01
    3875,    3.150000e+01,    2.100000e+01,   -2.450000e+01
    3876,    3.500000e+00,    2.450000e+01,   -2.450000e+01
    3877,    7.000000e+00,    2.450000e+01,   -2.450000e+01
    3878,    1.050000e+01,    2.450000e+01,   -2.450000e+01
    3879,    1.400000e+01,    2.450000e+01,   -2.450000e+01
    3880,    1.750000e+01,    2.450000e+01,   -2.450000e+01
    3881,    2.100000e+01,    2.450000e+01,   -2.450000e+01
    3882,    2.450000e+01,    2.450000e+01,   -2.450000e+01
    3883,    2.800000e+01,    2.450000e+01,   -2.450000e+01
    3884,    3.150000e+01,    2.450000e+01,   -2.450000e+01
    3885,    3.500000e+00,    2.800000e+01,   -2.450000e+01
    3886,    7.000000e+00,    2.800000e+01,   -2.450000e+01
    3887,    1.050000e+01,    2.800000e+01,   -2.450000e+01
    3888,    1.400000e+01,    2.800000e+01,   -2.450000e+01
    3889,    1.750000e+01,    2.800000e+01,   -2.450000e+01
    3890,    2.100000e+01,    2.800000e+01,   -2.450000e+01
    3891,    2.450000e+01,    2.800000e+01,   -2.450000e+01
    3892,    2.800000e+01,    2.800000e+01,   -2.450000e+01
    3893,    3.150000e+01,    2.800000e+01,   -2.450000e+01
    3894,    3.500000e+00,    3.150000e+01,   -2.450000e+01
    3895,    7.000000e+00,    3.150000e+01,   -2.450000e+01
    3896,    1.050000e+01,    3.150000e+01,   -2.450000e+01
    3897,    1.400000e+01,    3.150000e+01,   -2.450000e+01
    3898,    1.750000e+01,    3.150000e+01,   -2.450000e+01
    3899,    2.100000e+01,    3.150000e+01,   -2.450000e+01
    3900,    2.450000e+01,    3.150000e+01,   -2.450000e+01
    3901,    2.800000e+01,    3.150000e+01,   -2.450000e+01
    3902,    3.150000e+01,    3.150000e+01,   -2.450000e+01
    3903,    3.500000e+00,    3.500000e+00,   -2.100000e+01
    3904,    7.000000e+00,    3.500000e+00,   -2.100000e+01
    3905,    1.050000e+01,    3.500000e+00,   -2.100000e+01
    3906,    1.400000e+01,    3.500000e+00,   -2.100000e+01
    3907,    1.750000e+01,    3.500000e+00,   -2.100000e+01
    3908,    2.100000e+01,    3.500000e+00,   -2.100000e+01
    3909,    2.450000e+01,    3.500000e+00,   -2.100000e+01
    3910,    2.800000e+01,    3.500000e+00,   -2.100000e+01
    3911,    3.150000e+01,    3.500000e+00,   -2.100000e+01
    3912,    3.500000e+00,    7.000000e+00,   -2.100000e+01
    3913,    7.000000e+00,    7.000000e+00,   -2.100000e+01
    3914,    1.050000e+01,    7.000000e+00,   -2.100000e+01
    3915,    1.400000e+01,    7.000000e+00,   -2.100000e+01
    3916,    1.750000e+01,    7.000000e+00,   -2.100000e+01
    3917,    2.100000e+01,    7.000000e+00,   -2.100000e+01
    3918,    2.450000e+01,    7.000000e+00,   -2.100000e+01
    3919,    2.800000e+01,    7.000000e+00,   -2.100000e+01
    3920,    3.150000e+01,    7.000000e+00,   -2.100000e+01
    3921,    3.500000e+00,    1.050000e+01,   -2.100000e+01
    3922,    7.000000e+00,    1.050000e+01,   -2.100000e+01
    3923,    1.050000e+01,    1.050000e+01,   -2.100000e+01
    3924,    1.400000e+01,    1.050000e+01,   -2.100000e+01
    3925,    1.750000e+01,    1.050000e+01,   -2.100000e+01
    3926,    2.100000e+01,    1.050000e+01,   -2.100000e+01
    3927,    2.450000e+01,    1.050000e+01,   -2.100000e+01
    3928,    2.800000e+01,    1.050000e+01,   -2.100000e+01
    3929,    3.150000e+01,    1.050000e+01,   -2.100000e+01
    3930,    3.500000e+00,    1.400000e+01,   -2.100000e+01
    3931,    7.000000e+00,    1.400000e+01,   -2.100000e+01
    3932,    1.050000e+01,    1.400000e+01,   -2.100000e+01
    3933,    1.400000e+01,    1.400000e+01,   -2.100000e+01
    3934,    1.750000e+01,    1.400000e+01,   -2.100000e+01
    3935,    2.100000e+01,    1.400000e+01,   -2.100000e+01
    3936,    2.450000e+01,    1.400000e+01,   -2.100000e+01
    3937,    2.800000e+01,    1.400000e+01,   -2.100000e+01
    3938,    3.150000e+01,    1.400000e+01,   -2.100000e+01
    3939,    3.500000e+00,    1.750000e+01,   -2.100000e+01
    3940,    7.000000e+00,    1.750000e+01,   -2.100000e+01
    3941,    1.050000e+01,    1.750000e+01,   -2.100000e+01
    3942,    1.400000e+01,    1.750000e+01,   -2.100000e+01
    3943,    1.750000e+01,    1.750000e+01,   -2.100000e+01
    3944,    2.100000e+01,    1.750000e+01,   -2.100000e+01
    3945,    2.450000e+01,    1.750000e+01,   -2.100000e+01
    3946,    2.800000e+01,    1.750000e+01,   -2.100000e+01
    3947,    3.150000e+01,    1.750000e+01,   -2.100000e+01
    3948,    3.500000e+00,    2.100000e+01,   -2.100000e+01
    3949,    7.000000e+00,    2.100000e+01,   -2.100000e+01
    3950,    1.050000e+01,    2.100000e+01,   -2.100000e+01
    3951,    1.400000e+01,    2.100000e+01,   -2.100000e+01
    3952,    1.750000e+01,    2.100000e+01,   -2.100000e+01
    3953,    2.100000e+01,    2.100000e+01,   -2.100000e+01
    3954,    2.450000e+01,    2.100000e+01,   -2.100000e+01
    3955,    2.800000e+01,    2.100000e+01,   -2.100000e+01
    3956,    3.150000e+01,    2.100000e+01,   -2.100000e+01
    3957,    3.500000e+00,    2.450000e+01,   -2.100000e+01
    3958,    7.000000e+00,    2.450000e+01,   -2.100000e+01
    3959,    1.050000e+01,    2.450000e+01,   -2.100000e+01
    3960,    1.400000e+01,    2.450000e+01,   -2.100000e+01
    3961,    1.750000e+01,    2.450000e+01,   -2.100000e+01
    3962,    2.100000e+01,    2.450000e+01,   -2.100000e+01
    3963,    2.450000e+01,    2.450000e+01,   -2.100000e+01
    3964,    2.800000e+01,    2.450000e+01,   -2.100000e+01
    3965,    3.150000e+01,    2.450000e+01,   -2.100000e+01
    3966,    3.500000e+00,    2.800000e+01,   -2.100000e+01
    3967,    7.000000e+00,    2.800000e+01,   -2.100000e+01
    3968,    1.050000e+01,    2.800000e+01,   -2.100000e+01
    3969,    1.400000e+01,    2.800000e+01,   -2.100000e+01
    3970,    1.750000e+01,    2.800000e+01,   -2.100000e+01
    3971,    2.100000e+01,    2.800000e+01,   -2.100000e+01
    3972,    2.450000e+01,    2.800000e+01,   -2.100000e+01
    3973,    2.800000e+01,    2.800000e+01,   -2.100000e+01
    3974,    3.150000e+01,    2.800000e+01,   -2.100000e+01
    3975,    3.500000e+00,    3.150000e+01,   -2.100000e+01
    3976,    7.000000e+00,    3.150000e+01,   -2.100000e+01
    3977,    1.050000e+01,    3.150000e+01,   -2.100000e+01
    3978,    1.400000e+01,    3.150000e+01,   -2.100000e+01
    3979,    1.750000e+01,    3.150000e+01,   -2.100000e+01
    3980,    2.100000e+01,    3.150000e+01,   -2.100000e+01
    3981,    2.450000e+01,    3.150000e+01,   -2.100000e+01
    3982,    2.800000e+01,    3.150000e+01,   -2.100000e+01
    3983,    3.150000e+01,    3.150000e+01,   -2.100000e+01
    3984,    3.500000e+00,    3.500000e+00,   -1.750000e+01
    3985,    7.000000e+00,    3.500000e+00,   -1.750000e+01
    3986,    1.050000e+01,    3.500000e+00,   -1.750000e+01
    3987,    1.400000e+01,    3.500000e+00,   -1.750000e+01
    3988,    1.750000e+01,    3.500000e+00,   -1.750000e+01
    3989,    2.100000e+01,    3.500000e+00,   -1.750000e+01
    3990,    2.450000e+01,    3.500000e+00,   -1.750000e+01
    3991,    2.800000e+01,    3.500000e+00,   -1.750000e+01
    3992,    3.150000e+01,    3.500000e+00,   -1.750000e+01
    3993,    3.500000e+00,    7.000000e+00,   -1.750000e+01
    3994,    7.000000e+00,    7.000000e+00,   -1.750000e+01
    3995,    1.050000e+01,    7.000000e+00,   -1.750000e+01
    3996,    1.400000e+01,    7.000000e+00,   -1.750000e+01
    3997,    1.750000e+01,    7.000000e+00,   -1.750000e+01
    3998,    2.100000e+01,    7.000000e+00,   -1.750000e+01
    3999,    2.450000e+01,    7.000000e+00,   -1.750000e+01
    4000,    2.800000e+01,    7.000000e+00,   -1.750000e+01
    4001,    3.150000e+01,    7.000000e+00,   -1.750000e+01
    4002,    3.500000e+00,    1.050000e+01,   -1.750000e+01
    4003,    7.000000e+00,    1.050000e+01,   -1.750000e+01
    4004,    1.050000e+01,    1.050000e+01,   -1.750000e+01
    4005,    1.400000e+01,    1.050000e+01,   -1.750000e+01
    4006,    1.750000e+01,    1.050000e+01,   -1.750000e+01
    4007,    2.100000e+01,    1.050000e+01,   -1.750000e+01
    4008,    2.450000e+01,    1.050000e+01,   -1.750000e+01
    4009,    2.800000e+01,    1.050000e+01,   -1.750000e+01
    4010,    3.150000e+01,    1.050000e+01,   -1.750000e+01
    4011,    3.500000e+00,    1.400000e+01,   -1.750000e+01
    4012,    7.000000e+00,    1.400000e+01,   -1.750000e+01
    4013,    1.050000e+01,    1.400000e+01,   -1.750000e+01
    4014,    1.400000e+01,    1.400000e+01,   -1.750000e+01
    4015,    1.750000e+01,    1.400000e+01,   -1.750000e+01
    4016,    2.100000e+01,    1.400000e+01,   -1.750000e+01
    4017,    2.450000e+01,    1.400000e+01,   -1.750000e+01
    4018,    2.800000e+01,    1.400000e+01,   -1.750000e+01
    4019,    3.150000e+01,    1.400000e+01,   -1.750000e+01
    4020,    3.500000e+00,    1.750000e+01,   -1.750000e+01
    4021,    7.000000e+00,    1.750000e+01,   -1.750000e+01
    4022,    1.050000e+01,    1.750000e+01,   -1.750000e+01
    4023,    1.400000e+01,    1.750000e+01,   -1.750000e+01
    4024,    1.750000e+01,    1.750000e+01,   -1.750000e+01
    4025,    2.100000e+01,    1.750000e+01,   -1.750000e+01
    4026,    2.450000e+01,    1.750000e+01,   -1.750000e+01
    4027,    2.800000e+01,    1.750000e+01,   -1.750000e+01
    4028,    3.150000e+01,    1.750000e+01,   -1.750000e+01
    4029,    3.500000e+00,    2.100000e+01,   -1.750000e+01
    4030,    7.000000e+00,    2.100000e+01,   -1.750000e+01
    4031,    1.050000e+01,    2.100000e+01,   -1.750000e+01
    4032,    1.400000e+01,    2.100000e+01,   -1.750000e+01
    4033,    1.750000e+01,    2.100000e+01,   -1.750000e+01
    4034,    2.100000e+01,    2.100000e+01,   -1.750000e+01
    4035,    2.450000e+01,    2.100000e+01,   -1.750000e+01
    4036,    2.800000e+01,    2.100000e+01,   -1.750000e+01
    4037,    3.150000e+01,    2.100000e+01,   -1.750000e+01
    4038,    3.500000e+00,    2.450000e+01,   -1.750000e+01
    4039,    7.000000e+00,    2.450000e+01,   -1.750000e+01
    4040,    1.050000e+01,    2.450000e+01,   -1.750000e+01
    4041,    1.400000e+01,    2.450000e+01,   -1.750000e+01
    4042,    1.750000e+01,    2.450000e+01,   -1.750000e+01
    4043,    2.100000e+01,    2.450000e+01,   -1.750000e+01
    4044,    2.450000e+01,    2.450000e+01,   -1.750000e+01
    4045,    2.800000e+01,    2.450000e+01,   -1.750000e+01
    4046,    3.150000e+01,    2.450000e+01,   -1.750000e+01
    4047,    3.500000e+00,    2.800000e+01,   -1.750000e+01
    4048,    7.000000e+00,    2.800000e+01,   -1.750000e+01
    4049,    1.050000e+01,    2.800000e+01,   -1.750000e+01
    4050,    1.400000e+01,    2.800000e+01,   -1.750000e+01
    4051,    1.750000e+01,    2.800000e+01,   -1.750000e+01
    4052,    2.100000e+01,    2.800000e+01,   -1.750000e+01
    4053,    2.450000e+01,    2.800000e+01,   -1.750000e+01
    4054,    2.800000e+01,    2.800000e+01,   -1.750000e+01
    4055,    3.150000e+01,    2.800000e+01,   -1.750000e+01
    4056,    3.500000e+00,    3.150000e+01,   -1.750000e+01
    4057,    7.000000e+00,    3.150000e+01,   -1.750000e+01
    4058,    1.050000e+01,    3.150000e+01,   -1.750000e+01
    4059,    1.400000e+01,    3.150000e+01,   -1.750000e+01
    4060,    1.750000e+01,    3.150000e+01,   -1.750000e+01
    4061,    2.100000e+01,    3.150000e+01,   -1.750000e+01
    4062,    2.450000e+01,    3.150000e+01,   -1.750000e+01
    4063,    2.800000e+01,    3.150000e+01,   -1.750000e+01
    4064,    3.150000e+01,    3.150000e+01,   -1.750000e+01
    4065,    3.500000e+00,    3.500000e+00,   -1.400000e+01
    4066,    7.000000e+00,    3.500000e+00,   -1.400000e+01
    4067,    1.050000e+01,    3.500000e+00,   -1.400000e+01
    4068,    1.400000e+01,    3.500000e+00,   -1.400000e+01
    4069,    1.750000e+01,    3.500000e+00,   -1.400000e+01
    4070,    2.100000e+01,    3.500000e+00,   -1.400000e+01
    4071,    2.450000e+01,    3.500000e+00,   -1.400000e+01
    4072,    2.800000e+01,    3.500000e+00,   -1.400000e+01
    4073,    3.150000e+01,    3.500000e+00,   -1.400000e+01
    4074,    3.500000e+00,    7.000000e+00,   -1.400000e+01
    4075,    7.000000e+00,    7.000000e+00,   -1.400000e+01
    4076,    1.050000e+01,    7.000000e+00,   -1.400000e+01
    4077,    1.400000e+01,    7.000000e+00,   -1.400000e+01
    4078,    1.750000e+01,    7.000000e+00,   -1.400000e+01
    4079,    2.100000e+01,    7.000000e+00,   -1.400000e+01
    4080,    2.450000e+01,    7.000000e+00,   -1.400000e+01
    4081,    2.800000e+01,    7.000000e+00,   -1.400000e+01
    4082,    3.150000e+01,    7.000000e+00,   -1.400000e+01
    4083,    3.500000e+00,    1.050000e+01,   -1.400000e+01
    4084,    7.000000e+00,    1.050000e+01,   -1.400000e+01
    4085,    1.050000e+01,    1.050000e+01,   -1.400000e+01
    4086,    1.400000e+01,    1.050000e+01,   -1.400000e+01
    4087,    1.750000e+01,    1.050000e+01,   -1.400000e+01
    4088,    2.100000e+01,    1.050000e+01,   -1.400000e+01
    4089,    2.450000e+01,    1.050000e+01,   -1.400000e+01
    4090,    2.800000e+01,    1.050000e+01,   -1.400000e+01
    4091,    3.150000e+01,    1.050000e+01,   -1.400000e+01
    4092,    3.500000e+00,    1.400000e+01,   -1.400000e+01
    4093,    7.000000e+00,    1.400000e+01,   -1.400000e+01
    4094,    1.050000e+01,    1.400000e+01,   -1.400000e+01
    4095,    1.400000e+01,    1.400000e+01,   -1.400000e+01
    4096,    1.750000e+01,    1.400000e+01,   -1.400000e+01
    4097,    2.100000e+01,    1.400000e+01,   -1.400000e+01
    4098,    2.450000e+01,    1.400000e+01,   -1.400000e+01
    4099,    2.800000e+01,    1.400000e+01,   -1.400000e+01
    4100,    3.150000e+01,    1.400000e+01,   -1.400000e+01
    4101,    3.500000e+00,    1.750000e+01,   -1.400000e+01
    4102,    7.000000e+00,    1.750000e+01,   -1.400000e+01
    4103,    1.050000e+01,    1.750000e+01,   -1.400000e+01
    4104,    1.400000e+01,    1.750000e+01,   -1.400000e+01
    4105,    1.750000e+01,    1.750000e+01,   -1.400000e+01
    4106,    2.100000e+01,    1.750000e+01,   -1.400000e+01
    4107,    2.450000e+01,    1.750000e+01,   -1.400000e+01
    4108,    2.800000e+01,    1.750000e+01,   -1.400000e+01
    4109,    3.150000e+01,    1.750000e+01,   -1.400000e+01
    4110,    3.500000e+00,    2.100000e+01,   -1.400000e+01
    4111,    7.000000e+00,    2.100000e+01,   -1.400000e+01
    4112,    1.050000e+01,    2.100000e+01,   -1.400000e+01
    4113,    1.400000e+01,    2.100000e+01,   -1.400000e+01
    4114,    1.750000e+01,    2.100000e+01,   -1.400000e+01
    4115,    2.100000e+01,    2.100000e+01,   -1.400000e+01
    4116,    2.450000e+01,    2.100000e+01,   -1.400000e+01
    4117,    2.800000e+01,    2.100000e+01,   -1.400000e+01
    4118,    3.150000e+01,    2.100000e+01,   -1.400000e+01
    4119,    3.500000e+00,    2.450000e+01,   -1.400000e+01
    4120,    7.000000e+00,    2.450000e+01,   -1.400000e+01
    4121,    1.050000e+01,    2.450000e+01,   -1.400000e+01
    4122,    1.400000e+01,    2.450000e+01,   -1.400000e+01
    4123,    1.750000e+01,    2.450000e+01,   -1.400000e+01
    4124,    2.100000e+01,    2.450000e+01,   -1.400000e+01
    4125,    2.450000e+01,    2.450000e+01,   -1.400000e+01
    4126,    2.800000e+01,    2.450000e+01,   -1.400000e+01
    4127,    3.150000e+01,    2.450000e+01,   -1.400000e+01
    4128,    3.500000e+00,    2.800000e+01,   -1.400000e+01
    4129,    7.000000e+00,    2.800000e+01,   -1.400000e+01
    4130,    1.050000e+01,    2.800000e+01,   -1.400000e+01
    4131,    1.400000e+01,    2.800000e+01,   -1.400000e+01
    4132,    1.750000e+01,    2.800000e+01,   -1.400000e+01
    4133,    2.100000e+01,    2.800000e+01,   -1.400000e+01
    4134,    2.450000e+01,    2.800000e+01,   -1.400000e+01
    4135,    2.800000e+01,    2.800000e+01,   -1.400000e+01
    4136,    3.150000e+01,    2.800000e+01,   -1.400000e+01
    4137,    3.500000e+00,    3.150000e+01,   -1.400000e+01
    4138,    7.000000e+00,    3.150000e+01,   -1.400000e+01
    4139,    1.050000e+01,    3.150000e+01,   -1.400000e+01
    4140,    1.400000e+01,    3.150000e+01,   -1.400000e+01
    4141,    1.750000e+01,    3.150000e+01,   -1.400000e+01
    4142,    2.100000e+01,    3.150000e+01,   -1.400000e+01
    4143,    2.450000e+01,    3.150000e+01,   -1.400000e+01
    4144,    2.800000e+01,    3.150000e+01,   -1.400000e+01
    4145,    3.150000e+01,    3.150000e+01,   -1.400000e+01
    4146,    3.500000e+00,    3.500000e+00,   -1.050000e+01
    4147,    7.000000e+00,    3.500000e+00,   -1.050000e+01
    4148,    1.050000e+01,    3.500000e+00,   -1.050000e+01
    4149,    1.400000e+01,    3.500000e+00,   -1.050000e+01
    4150,    1.750000e+01,    3.500000e+00,   -1.050000e+01
    4151,    2.100000e+01,    3.500000e+00,   -1.050000e+01
    4152,    2.450000e+01,    3.500000e+00,   -1.050000e+01
    4153,    2.800000e+01,    3.500000e+00,   -1.050000e+01
    4154,    3.150000e+01,    3.500000e+00,   -1.050000e+01
    4155,    3.500000e+00,    7.000000e+00,   -1.050000e+01
    4156,    7.000000e+00,    7.000000e+00,   -1.050000e+01
    4157,    1.050000e+01,    7.000000e+00,   -1.050000e+01
    4158,    1.400000e+01,    7.000000e+00,   -1.050000e+01
    4159,    1.750000e+01,    7.000000e+00,   -1.050000e+01
    4160,    2.100000e+01,    7.000000e+00,   -1.050000e+01
    4161,    2.450000e+01,    7.000000e+00,   -1.050000e+01
    4162,    2.800000e+01,    7.000000e+00,   -1.050000e+01
    4163,    3.150000e+01,    7.000000e+00,   -1.050000e+01
    4164,    3.500000e+00,    1.050000e+01,   -1.050000e+01
    4165,    7.000000e+00,    1.050000e+01,   -1.050000e+01
    4166,    1.050000e+01,    1.050000e+01,   -1.050000e+01
    4167,    1.400000e+01,    1.050000e+01,   -1.050000e+01
    4168,    1.750000e+01,    1.050000e+01,   -1.050000e+01
    4169,    2.100000e+01,    1.050000e+01,   -1.050000e+01
    4170,    2.450000e+01,    1.050000e+01,   -1.050000e+01
    4171,    2.800000e+01,    1.050000e+01,   -1.050000e+01
    4172,    3.150000e+01,    1.050000e+01,   -1.050000e+01
    4173,    3.500000e+00,    1.400000e+01,   -1.050000e+01
    4174,    7.000000e+00,    1.400000e+01,   -1.050000e+01
    4175,    1.050000e+01,    1.400000e+01,   -1.050000e+01
    4176,    1.400000e+01,    1.400000e+01,   -1.050000e+01
    4177,    1.750000e+01,    1.400000e+01,   -1.050000e+01
    4178,    2.100000e+01,    1.400000e+01,   -1.050000e+01
    4179,    2.450000e+01,    1.400000e+01,   -1.050000e+01
    4180,    2.800000e+01,    1.400000e+01,   -1.050000e+01
    4181,    3.150000e+01,    1.400000e+01,   -1.050000e+01
    4182,    3.500000e+00,    1.750000e+01,   -1.050000e+01
    4183,    7.000000e+00,    1.750000e+01,   -1.050000e+01
    4184,    1.050000e+01,    1.750000e+01,   -1.050000e+01
    4185,    1.400000e+01,    1.750000e+01,   -1.050000e+01
    4186,    1.750000e+01,    1.750000e+01,   -1.050000e+01
    4187,    2.100000e+01,    1.750000e+01,   -1.050000e+01
    4188,    2.450000e+01,    1.750000e+01,   -1.050000e+01
    4189,    2.800000e+01,    1.750000e+01,   -1.050000e+01
    4190,    3.150000e+01,    1.750000e+01,   -1.050000e+01
    4191,    3.500000e+00,    2.100000e+01,   -1.050000e+01
    4192,    7.000000e+00,    2.100000e+01,   -1.050000e+01
    4193,    1.050000e+01,    2.100000e+01,   -1.050000e+01
    4194,    1.400000e+01,    2.100000e+01,   -1.050000e+01
    4195,    1.750000e+01,    2.100000e+01,   -1.050000e+01
    4196,    2.100000e+01,    2.100000e+01,   -1.050000e+01
    4197,    2.450000e+01,    2.100000e+01,   -1.050000e+01
    4198,    2.800000e+01,    2.100000e+01,   -1.050000e+01
    4199,    3.150000e+01,    2.100000e+01,   -1.050000e+01
    4200,    3.500000e+00,    2.450000e+01,   -1.050000e+01
    4201,    7.000000e+00,    2.450000e+01,   -1.050000e+01
    4202,    1.050000e+01,    2.450000e+01,   -1.050000e+01
    4203,    1.400000e+01,    2.450000e+01,   -1.050000e+01
    4204,    1.750000e+01,    2.450000e+01,   -1.050000e+01
    4205,    2.100000e+01,    2.450000e+01,   -1.050000e+01
    4206,    2.450000e+01,    2.450000e+01,   -1.050000e+01
    4207,    2.800000e+01,    2.450000e+01,   -1.050000e+01
    4208,    3.150000e+01,    2.450000e+01,   -1.050000e+01
    4209,    3.500000e+00,    2.800000e+01,   -1.050000e+01
    4210,    7.000000e+00,    2.800000e+01,   -1.050000e+01
    4211,    1.050000e+01,    2.800000e+01,   -1.050000e+01
    4212,    1.400000e+01,    2.800000e+01,   -1.050000e+01
    4213,    1.750000e+01,    2.800000e+01,   -1.050000e+01
    4214,    2.100000e+01,    2.800000e+01,   -1.050000e+01
    4215,    2.450000e+01,    2.800000e+01,   -1.050000e+01
    4216,    2.800000e+01,    2.800000e+01,   -1.050000e+01
    4217,    3.150000e+01,    2.800000e+01,   -1.050000e+01
    4218,    3.500000e+00,    3.150000e+01,   -1.050000e+01
    4219,    7.000000e+00,    3.150000e+01,   -1.050000e+01
    4220,    1.050000e+01,    3.150000e+01,   -1.050000e+01
    4221,    1.400000e+01,    3.150000e+01,   -1.050000e+01
    4222,    1.750000e+01,    3.150000e+01,   -1.050000e+01
    4223,    2.100000e+01,    3.150000e+01,   -1.050000e+01
    4224,    2.450000e+01,    3.150000e+01,   -1.050000e+01
    4225,    2.800000e+01,    3.150000e+01,   -1.050000e+01
    4226,    3.150000e+01,    3.150000e+01,   -1.050000e+01
    4227,    3.500000e+00,    3.500000e+00,   -7.000000e+00
    4228,    7.000000e+00,    3.500000e+00,   -7.000000e+00
    4229,    1.050000e+01,    3.500000e+00,   -7.000000e+00
    4230,    1.400000e+01,    3.500000e+00,   -7.000000e+00
    4231,    1.750000e+01,    3.500000e+00,   -7.000000e+00
    4232,    2.100000e+01,    3.500000e+00,   -7.000000e+00
    4233,    2.450000e+01,    3.500000e+00,   -7.000000e+00
    4234,    2.800000e+01,    3.500000e+00,   -7.000000e+00
    4235,    3.150000e+01,    3.500000e+00,   -7.000000e+00
    4236,    3.500000e+00,    7.000000e+00,   -7.000000e+00
    4237,    7.000000e+00,    7.000000e+00,   -7.000000e+00
    4238,    1.050000e+01,    7.000000e+00,   -7.000000e+00
    4239,    1.400000e+01,    7.000000e+00,   -7.000000e+00
    4240,    1.750000e+01,    7.000000e+00,   -7.000000e+00
    4241,    2.100000e+01,    7.000000e+00,   -7.000000e+00
    4242,    2.450000e+01,    7.000000e+00,   -7.000000e+00
    4243,    2.800000e+01,    7.000000e+00,   -7.000000e+00
    4244,    3.150000e+01,    7.000000e+00,   -7.000000e+00
    4245,    3.500000e+00,    1.050000e+01,   -7.000000e+00
    4246,    7.000000e+00,    1.050000e+01,   -7.000000e+00
    4247,    1.050000e+01,    1.050000e+01,   -7.000000e+00
    4248,    1.400000e+01,    1.050000e+01,   -7.000000e+00
    4249,    1.750000e+01,    1.050000e+01,   -7.000000e+00
    4250,    2.100000e+01,    1.050000e+01,   -7.000000e+00
    4251,    2.450000e+01,    1.050000e+01,   -7.000000e+00
    4252,    2.800000e+01,    1.050000e+01,   -7.000000e+00
    4253,    3.150000e+01,    1.050000e+01,   -7.000000e+00
    4254,    3.500000e+00,    1.400000e+01,   -7.000000e+00
    4255,    7.000000e+00,    1.400000e+01,   -7.000000e+00
    4256,    1.050000e+01,    1.400000e+01,   -7.000000e+00
    4257,    1.400000e+01,    1.400000e+01,   -7.000000e+00
    4258,    1.750000e+01,    1.400000e+01,   -7.000000e+00
    4259,    2.100000e+01,    1.400000e+01,   -7.000000e+00
    4260,    2.450000e+01,    1.400000e+01,   -7.000000e+00
    4261,    2.800000e+01,    1.400000e+01,   -7.000000e+00
    4262,    3.150000e+01,    1.400000e+01,   -7.000000e+00
    4263,    3.500000e+00,    1.750000e+01,   -7.000000e+00
    4264,    7.000000e+00,    1.750000e+01,   -7.000000e+00
    4265,    1.050000e+01,    1.750000e+01,   -7.000000e+00
    4266,    1.400000e+01,    1.750000e+01,   -7.000000e+00
    4267,    1.750000e+01,    1.750000e+01,   -7.000000e+00
    4268,    2.100000e+01,    1.750000e+01,   -7.000000e+00
    4269,    2.450000e+01,    1.750000e+01,   -7.000000e+00
    4270,    2.800000e+01,    1.750000e+01,   -7.000000e+00
    4271,    3.150000e+01,    1.750000e+01,   -7.000000e+00
    4272,    3.500000e+00,    2.100000e+01,   -7.000000e+00
    4273,    7.000000e+00,    2.100000e+01,   -7.000000e+00
    4274,    1.050000e+01,    2.100000e+01,   -7.000000e+00
    4275,    1.400000e+01,    2.100000e+01,   -7.000000e+00
    4276,    1.750000e+01,    2.100000e+01,   -7.000000e+00
    4277,    2.100000e+01,    2.100000e+01,   -7.000000e+00
    4278,    2.450000e+01,    2.100000e+01,   -7.000000e+00
    4279,    2.800000e+01,    2.100000e+01,   -7.000000e+00
    4280,    3.150000e+01,    2.100000e+01,   -7.000000e+00
    4281,    3.500000e+00,    2.450000e+01,   -7.000000e+00
    4282,    7.000000e+00,    2.450000e+01,   -7.000000e+00
    4283,    1.050000e+01,    2.450000e+01,   -7.000000e+00
    4284,    1.400000e+01,    2.450000e+01,   -7.000000e+00
    4285,    1.750000e+01,    2.450000e+01,   -7.000000e+00
    4286,    2.100000e+01,    2.450000e+01,   -7.000000e+00
    4287,    2.450000e+01,    2.450000e+01,   -7.000000e+00
    4288,    2.800000e+01,    2.450000e+01,   -7.000000e+00
    4289,    3.150000e+01,    2.450000e+01,   -7.000000e+00
    4290,    3.500000e+00,    2.800000e+01,   -7.000000e+00
    4291,    7.000000e+00,    2.800000e+01,   -7.000000e+00
    4292,    1.050000e+01,    2.800000e+01,   -7.000000e+00
    4293,    1.400000e+01,    2.800000e+01,   -7.000000e+00
    4294,    1.750000e+01,    2.800000e+01,   -7.000000e+00
    4295,    2.100000e+01,    2.800000e+01,   -7.000000e+00
    4296,    2.450000e+01,    2.800000e+01,   -7.000000e+00
    4297,    2.800000e+01,    2.800000e+01,   -7.000000e+00
    4298,    3.150000e+01,    2.800000e+01,   -7.000000e+00
    4299,    3.500000e+00,    3.150000e+01,   -7.000000e+00
    4300,    7.000000e+00,    3.150000e+01,   -7.000000e+00
    4301,    1.050000e+01,    3.150000e+01,   -7.000000e+00
    4302,    1.400000e+01,    3.150000e+01,   -7.000000e+00
    4303,    1.750000e+01,    3.150000e+01,   -7.000000e+00
    4304,    2.100000e+01,    3.150000e+01,   -7.000000e+00
    4305,    2.450000e+01,    3.150000e+01,   -7.000000e+00
    4306,    2.800000e+01,    3.150000e+01,   -7.000000e+00
    4307,    3.150000e+01,    3.150000e+01,   -7.000000e+00
    4308,    3.500000e+00,    3.500000e+00,   -3.500000e+00
    4309,    7.000000e+00,    3.500000e+00,   -3.500000e+00
    4310,    1.050000e+01,    3.500000e+00,   -3.500000e+00
    4311,    1.400000e+01,    3.500000e+00,   -3.500000e+00
    4312,    1.750000e+01,    3.500000e+00,   -3.500000e+00
    4313,    2.100000e+01,    3.500000e+00,   -3.500000e+00
    4314,    2.450000e+01,    3.500000e+00,   -3.500000e+00
    4315,    2.800000e+01,    3.500000e+00,   -3.500000e+00
    4316,    3.150000e+01,    3.500000e+00,   -3.500000e+00
    4317,    3.500000e+00,    7.000000e+00,   -3.500000e+00
    4318,    7.000000e+00,    7.000000e+00,   -3.500000e+00
    4319,    1.050000e+01,    7.000000e+00,   -3.500000e+00
    4320,    1.400000e+01,    7.000000e+00,   -3.500000e+00
    4321,    1.750000e+01,    7.000000e+00,   -3.500000e+00
    4322,    2.100000e+01,    7.000000e+00,   -3.500000e+00
    4323,    2.450000e+01,    7.000000e+00,   -3.500000e+00
    4324,    2.800000e+01,    7.000000e+00,   -3.500000e+00
    4325,    3.150000e+01,    7.000000e+00,   -3.500000e+00
    4326,    3.500000e+00,    1.050000e+01,   -3.500000e+00
    4327,    7.000000e+00,    1.050000e+01,   -3.500000e+00
    4328,    1.050000e+01,    1.050000e+01,   -3.500000e+00
    4329,    1.400000e+01,    1.050000e+01,   -3.500000e+00
    4330,    1.750000e+01,    1.050000e+01,   -3.500000e+00
    4331,    2.100000e+01,    1.050000e+01,   -3.500000e+00
    4332,    2.450000e+01,    1.050000e+01,   -3.500000e+00
    4333,    2.800000e+01,    1.050000e+01,   -3.500000e+00
    4334,    3.150000e+01,    1.050000e+01,   -3.500000e+00
    4335,    3.500000e+00,    1.400000e+01,   -3.500000e+00
    4336,    7.000000e+00,    1.400000e+01,   -3.500000e+00
    4337,    1.050000e+01,    1.400000e+01,   -3.500000e+00
    4338,    1.400000e+01,    1.400000e+01,   -3.500000e+00
    4339,    1.750000e+01,    1.400000e+01,   -3.500000e+00
    4340,    2.100000e+01,    1.400000e+01,   -3.500000e+00
    4341,    2.450000e+01,    1.400000e+01,   -3.500000e+00
    4342,    2.800000e+01,    1.400000e+01,   -3.500000e+00
    4343,    3.150000e+01,    1.400000e+01,   -3.500000e+00
    4344,    3.500000e+00,    1.750000e+01,   -3.500000e+00
    4345,    7.000000e+00,    1.750000e+01,   -3.500000e+00
    4346,    1.050000e+01,    1.750000e+01,   -3.500000e+00
    4347,    1.400000e+01,    1.750000e+01,   -3.500000e+00
    4348,    1.750000e+01,    1.750000e+01,   -3.500000e+00
    4349,    2.100000e+01,    1.750000e+01,   -3.500000e+00
    4350,    2.450000e+01,    1.750000e+01,   -3.500000e+00
    4351,    2.800000e+01,    1.750000e+01,   -3.500000e+00
    4352,    3.150000e+01,    1.750000e+01,   -3.500000e+00
    4353,    3.500000e+00,    2.100000e+01,   -3.500000e+00
    4354,    7.000000e+00,    2.100000e+01,   -3.500000e+00
    4355,    1.050000e+01,    2.100000e+01,   -3.500000e+00
    4356,    1.400000e+01,    2.100000e+01,   -3.500000e+00
    4357,    1.750000e+01,    2.100000e+01,   -3.500000e+00
    4358,    2.100000e+01,    2.100000e+01,   -3.500000e+00
    4359,    2.450000e+01,    2.100000e+01,   -3.500000e+00
    4360,    2.800000e+01,    2.100000e+01,   -3.500000e+00
    4361,    3.150000e+01,    2.100000e+01,   -3.500000e+00
    4362,    3.500000e+00,    2.450000e+01,   -3.500000e+00
    4363,    7.000000e+00,    2.450000e+01,   -3.500000e+00
    4364,    1.050000e+01,    2.450000e+01,   -3.500000e+00
    4365,    1.400000e+01,    2.450000e+01,   -3.500000e+00
    4366,    1.750000e+01,    2.450000e+01,   -3.500000e+00
    4367,    2.100000e+01,    2.450000e+01,   -3.500000e+00
    4368,    2.450000e+01,    2.450000e+01,   -3.500000e+00
    4369,    2.800000e+01,    2.450000e+01,   -3.500000e+00
    4370,    3.150000e+01,    2.450000e+01,   -3.500000e+00
    4371,    3.500000e+00,    2.800000e+01,   -3.500000e+00
    4372,    7.000000e+00,    2.800000e+01,   -3.500000e+00
    4373,    1.050000e+01,    2.800000e+01,   -3.500000e+00
    4374,    1.400000e+01,    2.800000e+01,   -3.500000e+00
    4375,    1.750000e+01,    2.800000e+01,   -3.500000e+00
    4376,    2.100000e+01,    2.800000e+01,   -3.500000e+00
    4377,    2.450000e+01,    2.800000e+01,   -3.500000e+00
    4378,    2.800000e+01,    2.800000e+01,   -3.500000e+00
    4379,    3.150000e+01,    2.800000e+01,   -3.500000e+00
    4380,    3.500000e+00,    3.150000e+01,   -3.500000e+00
    4381,    7.000000e+00,    3.150000e+01,   -3.500000e+00
    4382,    1.050000e+01,    3.150000e+01,   -3.500000e+00
    4383,    1.400000e+01,    3.150000e+01,   -3.500000e+00
    4384,    1.750000e+01,    3.150000e+01,   -3.500000e+00
    4385,    2.100000e+01,    3.150000e+01,   -3.500000e+00
    4386,    2.450000e+01,    3.150000e+01,   -3.500000e+00
    4387,    2.800000e+01,    3.150000e+01,   -3.500000e+00
    4388,    3.150000e+01,    3.150000e+01,   -3.500000e+00
    4389,    3.500000e+00,    3.500000e+00,    1.332268e-15
    4390,    7.000000e+00,    3.500000e+00,   -4.440892e-15
    4391,    1.050000e+01,    3.500000e+00,   -2.164935e-15
    4392,    1.400000e+01,    3.500000e+00,   -1.332268e-15
    4393,    1.750000e+01,    3.500000e+00,   -7.771561e-16
    4394,    2.100000e+01,    3.500000e+00,   -3.441691e-15
    4395,    2.450000e+01,    3.500000e+00,    0.000000e+00
    4396,    2.800000e+01,    3.500000e+00,   -1.665335e-15
    4397,    3.150000e+01,    3.500000e+00,   -3.441691e-15
    4398,    3.500000e+00,    7.000000e+00,   -4.218847e-15
    4399,    7.000000e+00,    7.000000e+00,   -6.661338e-15
    4400,    1.050000e+01,    7.000000e+00,   -6.661338e-15
    4401,    1.400000e+01,    7.000000e+00,   -5.329071e-15
    4402,    1.750000e+01,    7.000000e+00,   -1.332268e-15
    4403,    2.100000e+01,    7.000000e+00,   -2.442491e-15
    4404,    2.450000e+01,    7.000000e+00,   -6.661338e-16
    4405,    2.800000e+01,    7.000000e+00,   -4.440892e-15
    4406,    3.150000e+01,    7.000000e+00,   -6.661338e-16
    4407,    3.500000e+00,    1.050000e+01,   -4.996004e-16
    4408,    7.000000e+00,    1.050000e+01,   -4.551914e-15
    4409,    1.050000e+01,    1.050000e+01,   -4.440892e-15
    4410,    1.400000e+01,    1.050000e+01,   -4.662937e-15
    4411,    1.750000e+01,    1.050000e+01,    1.110223e-15
    4412,    2.100000e+01,    1.050000e+01,   -5.329071e-15
    4413,    2.450000e+01,    1.050000e+01,   -4.440892e-15
    4414,    2.800000e+01,    1.050000e+01,   -1.332268e-15
    4415,    3.150000e+01,    1.050000e+01,   -1.332268e-15
    4416,    3.500000e+00,    1.400000e+01,   -9.992007e-16
    4417,    7.000000e+00,    1.400000e+01,   -5.551115e-15
    4418,    1.050000e+01,    1.400000e+01,   -4.440892e-15
    4419,    1.400000e+01,    1.400000e+01,   -5.773160e-15
    4420,    1.750000e+01,    1.400000e+01,    4.440892e-16
    4421,    2.100000e+01,    1.400000e+01,   -4.884981e-15
    4422,    2.450000e+01,    1.400000e+01,   -3.108624e-15
    4423,    2.800000e+01,    1.400000e+01,   -3.552714e-15
    4424,    3.150000e+01,    1.400000e+01,    0.000000e+00
    4425,    3.500000e+00,    1.750000e+01,   -1.776357e-15
    4426,    7.000000e+00,    1.750000e+01,   -2.220446e-16
    4427,    1.050000e+01,    1.750000e+01,    2.220446e-16
    4428,    1.400000e+01,    1.750000e+01,   -3.552714e-15
    4429,    1.750000e+01,    1.750000e+01,   -1.776357e-15
    4430,    2.100000e+01,    1.750000e+01,   -1.332268e-15
    4431,    2.450000e+01,    1.750000e+01,   -1.332268e-15
    4432,    2.800000e+01,    1.750000e+01,    0.000000e+00
    4433,    3.150000e+01,    1.750000e+01,   -3.552714e-15
    4434,    3.500000e+00,    2.100000e+01,    7.771561e-16
    4435,    7.000000e+00,    2.100000e+01,   -6.217249e-15
    4436,    1.050000e+01,    2.100000e+01,    1.554312e-15
    4437,    1.400000e+01,    2.100000e+01,   -3.552714e-15
    4438,    1.750000e+01,    2.100000e+01,   -1.776357e-15
    4439,    2.100000e+01,    2.100000e+01,   -5.329071e-15
    4440,    2.450000e+01,    2.100000e+01,    2.664535e-15
    4441,    2.800000e+01,    2.100000e+01,   -6.217249e-15
    4442,    3.150000e+01,    2.100000e+01,    8.881784e-16
    4443,    3.500000e+00,    2.450000e+01,    8.881784e-16
    4444,    7.000000e+00,    2.450000e+01,   -4.662937e-15
    4445,    1.050000e+01,    2.450000e+01,   -4.440892e-16
    4446,    1.400000e+01,    2.450000e+01,   -4.884981e-15
    4447,    1.750000e+01,    2.450000e+01,   -4.440892e-16
    4448,    2.100000e+01,    2.450000e+01,   -3.552714e-15
    4449,    2.450000e+01,    2.450000e+01,   -1.776357e-15
    4450,    2.800000e+01,    2.450000e+01,    8.881784e-16
    4451,    3.150000e+01,    2.450000e+01,    1.776357e-15
    4452,    3.500000e+00,    2.800000e+01,   -3.885781e-15
    4453,    7.000000e+00,    2.800000e+01,   -5.329071e-15
    4454,    1.050000e+01,    2.800000e+01,   -4.440892e-16
    4455,    1.400000e+01,    2.800000e+01,   -3.552714e-15
    4456,    1.750000e+01,    2.800000e+01,    8.881784e-16
    4457,    2.100000e+01,    2.800000e+01,   -2.664535e-15
    4458,    2.450000e+01,    2.800000e+01,    3.552714e-15
    4459,    2.800000e+01,    2.800000e+01,   -2.664535e-15
    4460,    3.150000e+01,    2.800000e+01,    0.000000e+00
    4461,    3.500000e+00,    3.150000e+01,    0.000000e+00
    4462,    7.000000e+00,    3.150000e+01,   -4.440892e-16
    4463,    1.050000e+01,    3.150000e+01,   -1.332268e-15
    4464,    1.400000e+01,    3.150000e+01,    8.881784e-16
    4465,    1.750000e+01,    3.150000e+01,    0.000000e+00
    4466,    2.100000e+01,    3.150000e+01,    2.664535e-15
    4467,    2.450000e+01,    3.150000e+01,   -8.881784e-16
    4468,    2.800000e+01,    3.150000e+01,    8.881784e-16
    4469,    3.150000e+01,    3.150000e+01,    5.329071e-15
    4470,    3.500000e+00,    3.500000e+00,    3.500000e+00
    4471,    7.000000e+00,    3.500000e+00,    3.500000e+00
    4472,    1.050000e+01,    3.500000e+00,    3.500000e+00
    4473,    1.400000e+01,    3.500000e+00,    3.500000e+00
    4474,    1.750000e+01,    3.500000e+00,    3.500000e+00
    4475,    2.100000e+01,    3.500000e+00,    3.500000e+00
    4476,    2.450000e+01,    3.500000e+00,    3.500000e+00
    4477,    2.800000e+01,    3.500000e+00,    3.500000e+00
    4478,    3.150000e+01,    3.500000e+00,    3.500000e+00
    4479,    3.500000e+00,    7.000000e+00,    3.500000e+00
    4480,    7.000000e+00,    7.000000e+00,    3.500000e+00
    4481,    1.050000e+01,    7.000000e+00,    3.500000e+00
    4482,    1.400000e+01,    7.000000e+00,    3.500000e+00
    4483,    1.750000e+01,    7.000000e+00,    3.500000e+00
    4484,    2.100000e+01,    7.000000e+00,    3.500000e+00
    4485,    2.450000e+01,    7.000000e+00,    3.500000e+00
    4486,    2.800000e+01,    7.000000e+00,    3.500000e+00
    4487,    3.150000e+01,    7.000000e+00,    3.500000e+00
    4488,    3.500000e+00,    1.050000e+01,    3.500000e+00
    4489,    7.000000e+00,    1.050000e+01,    3.500000e+00
    4490,    1.050000e+01,    1.050000e+01,    3.500000e+00
    4491,    1.400000e+01,    1.050000e+01,    3.500000e+00
    4492,    1.750000e+01,    1.050000e+01,    3.500000e+00
    4493,    2.100000e+01,    1.050000e+01,    3.500000e+00
    4494,    2.450000e+01,    1.050000e+01,    3.500000e+00
    4495,    2.800000e+01,    1.050000e+01,    3.500000e+00
    4496,    3.150000e+01,    1.050000e+01,    3.500000e+00
    4497,    3.500000e+00,    1.400000e+01,    3.500000e+00
    4498,    7.000000e+00,    1.400000e+01,    3.500000e+00
    4499,    1.050000e+01,    1.400000e+01,    3.500000e+00
    4500,    1.400000e+01,    1.400000e+01,    3.500000e+00
    4501,    1.750000e+01,    1.400000e+01,    3.500000e+00
    4502,    2.100000e+01,    1.400000e+01,    3.500000e+00
    4503,    2.450000e+01,    1.400000e+01,    3.500000e+00
    4504,    2.800000e+01,    1.400000e+01,    3.500000e+00
    4505,    3.150000e+01,    1.400000e+01,    3.500000e+00
    4506,    3.500000e+00,    1.750000e+01,    3.500000e+00
    4507,    7.000000e+00,    1.750000e+01,    3.500000e+00
    4508,    1.050000e+01,    1.750000e+01,    3.500000e+00
    4509,    1.400000e+01,    1.750000e+01,    3.500000e+00
    4510,    1.750000e+01,    1.750000e+01,    3.500000e+00
    4511,    2.100000e+01,    1.750000e+01,    3.500000e+00
    4512,    2.450000e+01,    1.750000e+01,    3.500000e+00
    4513,    2.800000e+01,    1.750000e+01,    3.500000e+00
    4514,    3.150000e+01,    1.750000e+01,    3.500000e+00
    4515,    3.500000e+00,    2.100000e+01,    3.500000e+00
    4516,    7.000000e+00,    2.100000e+01,    3.500000e+00
    4517,    1.050000e+01,    2.100000e+01,    3.500000e+00
    4518,    1.400000e+01,    2.100000e+01,    3.500000e+00
    4519,    1.750000e+01,    2.100000e+01,    3.500000e+00
    4520,    2.100000e+01,    2.100000e+01,    3.500000e+00
    4521,    2.450000e+01,    2.100000e+01,    3.500000e+00
    4522,    2.800000e+01,    2.100000e+01,    3.500000e+00
    4523,    3.150000e+01,    2.100000e+01,    3.500000e+00
    4524,    3.500000e+00,    2.450000e+01,    3.500000e+00
    4525,    7.000000e+00,    2.450000e+01,    3.500000e+00
    4526,    1.050000e+01,    2.450000e+01,    3.500000e+00
    4527,    1.400000e+01,    2.450000e+01,    3.500000e+00
    4528,    1.750000e+01,    2.450000e+01,    3.500000e+00
    4529,    2.100000e+01,    2.450000e+01,    3.500000e+00
    4530,    2.450000e+01,    2.450000e+01,    3.500000e+00
    4531,    2.800000e+01,    2.450000e+01,    3.500000e+00
    4532,    3.150000e+01,    2.450000e+01,    3.500000e+00
    4533,    3.500000e+00,    2.800000e+01,    3.500000e+00
    4534,    7.000000e+00,    2.800000e+01,    3.500000e+00
    4535,    1.050000e+01,    2.800000e+01,    3.500000e+00
    4536,    1.400000e+01,    2.800000e+01,    3.500000e+00
    4537,    1.750000e+01,    2.800000e+01,    3.500000e+00
    4538,    2.100000e+01,    2.800000e+01,    3.500000e+00
    4539,    2.450000e+01,    2.800000e+01,    3.500000e+00
    4540,    2.800000e+01,    2.800000e+01,    3.500000e+00
    4541,    3.150000e+01,    2.800000e+01,    3.500000e+00
    4542,    3.500000e+00,    3.150000e+01,    3.500000e+00
    4543,    7.000000e+00,    3.150000e+01,    3.500000e+00
    4544,    1.050000e+01,    3.150000e+01,    3.500000e+00
    4545,    1.400000e+01,    3.150000e+01,    3.500000e+00
    4546,    1.750000e+01,    3.150000e+01,    3.500000e+00
    4547,    2.100000e+01,    3.150000e+01,    3.500000e+00
    4548,    2.450000e+01,    3.150000e+01,    3.500000e+00
    4549,    2.800000e+01,    3.150000e+01,    3.500000e+00
    4550,    3.150000e+01,    3.150000e+01,    3.500000e+00
    4551,    3.500000e+00,    3.500000e+00,    7.000000e+00
    4552,    7.000000e+00,    3.500000e+00,    7.000000e+00
    4553,    1.050000e+01,    3.500000e+00,    7.000000e+00
    4554,    1.400000e+01,    3.500000e+00,    7.000000e+00
    4555,    1.750000e+01,    3.500000e+00,    7.000000e+00
    4556,    2.100000e+01,    3.500000e+00,    7.000000e+00
    4557,    2.450000e+01,    3.500000e+00,    7.000000e+00
    4558,    2.800000e+01,    3.500000e+00,    7.000000e+00
    4559,    3.150000e+01,    3.500000e+00,    7.000000e+00
    4560,    3.500000e+00,    7.000000e+00,    7.000000e+00
    4561,    7.000000e+00,    7.000000e+00,    7.000000e+00
    4562,    1.050000e+01,    7.000000e+00,    7.000000e+00
    4563,    1.400000e+01,    7.000000e+00,    7.000000e+00
    4564,    1.750000e+01,    7.000000e+00,    7.000000e+00
    4565,    2.100000e+01,    7.000000e+00,    7.000000e+00
    4566,    2.450000e+01,    7.000000e+00,    7.000000e+00
    4567,    2.800000e+01,    7.000000e+00,    7.000000e+00
    4568,    3.150000e+01,    7.000000e+00,    7.000000e+00
    4569,    3.500000e+00,    1.050000e+01,    7.000000e+00
    4570,    7.000000e+00,    1.050000e+01,    7.000000e+00
    4571,    1.050000e+01,    1.050000e+01,    7.000000e+00
    4572,    1.400000e+01,    1.050000e+01,    7.000000e+00
    4573,    1.750000e+01,    1.050000e+01,    7.000000e+00
    4574,    2.100000e+01,    1.050000e+01,    7.000000e+00
    4575,    2.450000e+01,    1.050000e+01,    7.000000e+00
    4576,    2.800000e+01,    1.050000e+01,    7.000000e+00
    4577,    3.150000e+01,    1.050000e+01,    7.000000e+00
    4578,    3.500000e+00,    1.400000e+01,    7.000000e+00
    4579,    7.000000e+00,    1.400000e+01,    7.000000e+00
    4580,    1.050000e+01,    1.400000e+01,    7.000000e+00
    4581,    1.400000e+01,    1.400000e+01,    7.000000e+00
    4582,    1.750000e+01,    1.400000e+01,    7.000000e+00
    4583,    2.100000e+01,    1.400000e+01,    7.000000e+00
    4584,    2.450000e+01,    1.400000e+01,    7.000000e+00
    4585,    2.800000e+01,    1.400000e+01,    7.000000e+00
    4586,    3.150000e+01,    1.400000e+01,    7.000000e+00
    4587,    3.500000e+00,    1.750000e+01,    7.000000e+00
    4588,    7.000000e+00,    1.750000e+01,    7.000000e+00
    4589,    1.050000e+01,    1.750000e+01,    7.000000e+00
    4590,    1.400000e+01,    1.750000e+01,    7.000000e+00
    4591,    1.750000e+01,    1.750000e+01,    7.000000e+00
    4592,    2.100000e+01,    1.750000e+01,    7.000000e+00
    4593,    2.450000e+01,    1.750000e+01,    7.000000e+00
    4594,    2.800000e+01,    1.750000e+01,    7.000000e+00
    4595,    3.150000e+01,    1.750000e+01,    7.000000e+00
    4596,    3.500000e+00,    2.100000e+01,    7.000000e+00
    4597,    7.000000e+00,    2.100000e+01,    7.000000e+00
    4598,    1.050000e+01,    2.100000e+01,    7.000000e+00
    4599,    1.400000e+01,    2.100000e+01,    7.000000e+00
    4600,    1.750000e+01,    2.100000e+01,    7.000000e+00
    4601,    2.100000e+01,    2.100000e+01,    7.000000e+00
    4602,    2.450000e+01,    2.100000e+01,    7.000000e+00
    4603,    2.800000e+01,    2.100000e+01,    7.000000e+00
    4604,    3.150000e+01,    2.100000e+01,    7.000000e+00
    4605,    3.500000e+00,    2.450000e+01,    7.000000e+00
    4606,    7.000000e+00,    2.450000e+01,    7.000000e+00
    4607,    1.050000e+01,    2.450000e+01,    7.000000e+00
    4608,    1.400000e+01,    2.450000e+01,    7.000000e+00
    4609,    1.750000e+01,    2.450000e+01,    7.000000e+00
    4610,    2.100000e+01,    2.450000e+01,    7.000000e+00
    4611,    2.450000e+01,    2.450000e+01,    7.000000e+00
    4612,    2.800000e+01,    2.450000e+01,    7.000000e+00
    4613,    3.150000e+01,    2.450000e+01,    7.000000e+00
    4614,    3.500000e+00,    2.800000e+01,    7.000000e+00
    4615,    7.000000e+00,    2.800000e+01,    7.000000e+00
    4616,    1.050000e+01,    2.800000e+01,    7.000000e+00
    4617,    1.400000e+01,    2.800000e+01,    7.000000e+00
    4618,    1.750000e+01,    2.800000e+01,    7.000000e+00
    4619,    2.100000e+01,    2.800000e+01,    7.000000e+00
    4620,    2.450000e+01,    2.800000e+01,    7.000000e+00
    4621,    2.800000e+01,    2.800000e+01,    7.000000e+00
    4622,    3.150000e+01,    2.800000e+01,    7.000000e+00
    4623,    3.500000e+00,    3.150000e+01,    7.000000e+00
    4624,    7.000000e+00,    3.150000e+01,    7.000000e+00
    4625,    1.050000e+01,    3.150000e+01,    7.000000e+00
    4626,    1.400000e+01,    3.150000e+01,    7.000000e+00
    4627,    1.750000e+01,    3.150000e+01,    7.000000e+00
    4628,    2.100000e+01,    3.150000e+01,    7.000000e+00
    4629,    2.450000e+01,    3.150000e+01,    7.000000e+00
    4630,    2.800000e+01,    3.150000e+01,    7.000000e+00
    4631,    3.150000e+01,    3.150000e+01,    7.000000e+00
    4632,    3.500000e+00,    3.500000e+00,    1.050000e+01
    4633,    7.000000e+00,    3.500000e+00,    1.050000e+01
    4634,    1.050000e+01,    3.500000e+00,    1.050000e+01
    4635,    1.400000e+01,    3.500000e+00,    1.050000e+01
    4636,    1.750000e+01,    3.500000e+00,    1.050000e+01
    4637,    2.100000e+01,    3.500000e+00,    1.050000e+01
    4638,    2.450000e+01,    3.500000e+00,    1.050000e+01
    4639,    2.800000e+01,    3.500000e+00,    1.050000e+01
    4640,    3.150000e+01,    3.500000e+00,    1.050000e+01
    4641,    3.500000e+00,    7.000000e+00,    1.050000e+01
    4642,    7.000000e+00,    7.000000e+00,    1.050000e+01
    4643,    1.050000e+01,    7.000000e+00,    1.050000e+01
    4644,    1.400000e+01,    7.000000e+00,    1.050000e+01
    4645,    1.750000e+01,    7.000000e+00,    1.050000e+01
    4646,    2.100000e+01,    7.000000e+00,    1.050000e+01
    4647,    2.450000e+01,    7.000000e+00,    1.050000e+01
    4648,    2.800000e+01,    7.000000e+00,    1.050000e+01
    4649,    3.150000e+01,    7.000000e+00,    1.050000e+01
    4650,    3.500000e+00,    1.050000e+01,    1.050000e+01
    4651,    7.000000e+00,    1.050000e+01,    1.050000e+01
    4652,    1.050000e+01,    1.050000e+01,    1.050000e+01
    4653,    1.400000e+01,    1.050000e+01,    1.050000e+01
    4654,    1.750000e+01,    1.050000e+01,    1.050000e+01
    4655,    2.100000e+01,    1.050000e+01,    1.050000e+01
    4656,    2.450000e+01,    1.050000e+01,    1.050000e+01
    4657,    2.800000e+01,    1.050000e+01,    1.050000e+01
    4658,    3.150000e+01,    1.050000e+01,    1.050000e+01
    4659,    3.500000e+00,    1.400000e+01,    1.050000e+01
    4660,    7.000000e+00,    1.400000e+01,    1.050000e+01
    4661,    1.050000e+01,    1.400000e+01,    1.050000e+01
    4662,    1.400000e+01,    1.400000e+01,    1.050000e+01
    4663,    1.750000e+01,    1.400000e+01,    1.050000e+01
    4664,    2.100000e+01,    1.400000e+01,    1.050000e+01
    4665,    2.450000e+01,    1.400000e+01,    1.050000e+01
    4666,    2.800000e+01,    1.400000e+01,    1.050000e+01
    4667,    3.150000e+01,    1.400000e+01,    1.050000e+01
    4668,    3.500000e+00,    1.750000e+01,    1.050000e+01
    4669,    7.000000e+00,    1.750000e+01,    1.050000e+01
    4670,    1.050000e+01,    1.750000e+01,    1.050000e+01
    4671,    1.400000e+01,    1.750000e+01,    1.050000e+01
    4672,    1.750000e+01,    1.750000e+01,    1.050000e+01
    4673,    2.100000e+01,    1.750000e+01,    1.050000e+01
    4674,    2.450000e+01,    1.750000e+01,    1.050000e+01
    4675,    2.800000e+01,    1.750000e+01,    1.050000e+01
    4676,    3.150000e+01,    1.750000e+01,    1.050000e+01
    4677,    3.500000e+00,    2.100000e+01,    1.050000e+01
    4678,    7.000000e+00,    2.100000e+01,    1.050000e+01
    4679,    1.050000e+01,    2.100000e+01,    1.050000e+01
    4680,    1.400000e+01,    2.100000e+01,    1.050000e+01
    4681,    1.750000e+01,    2.100000e+01,    1.050000e+01
    4682,    2.100000e+01,    2.100000e+01,    1.050000e+01
    4683,    2.450000e+01,    2.100000e+01,    1.050000e+01
    4684,    2.800000e+01,    2.100000e+01,    1.050000e+01
    4685,    3.150000e+01,    2.100000e+01,    1.050000e+01
    4686,    3.500000e+00,    2.450000e+01,    1.050000e+01
    4687,    7.000000e+00,    2.450000e+01,    1.050000e+01
    4688,    1.050000e+01,    2.450000e+01,    1.050000e+01
    4689,    1.400000e+01,    2.450000e+01,    1.050000e+01
    4690,    1.750000e+01,    2.450000e+01,    1.050000e+01
    4691,    2.100000e+01,    2.450000e+01,    1.050000e+01
    4692,    2.450000e+01,    2.450000e+01,    1.050000e+01
    4693,    2.800000e+01,    2.450000e+01,    1.050000e+01
    4694,    3.150000e+01,    2.450000e+01,    1.050000e+01
    4695,    3.500000e+00,    2.800000e+01,    1.050000e+01
    4696,    7.000000e+00,    2.800000e+01,    1.050000e+01
    4697,    1.050000e+01,    2.800000e+01,    1.050000e+01
    4698,    1.400000e+01,    2.800000e+01,    1.050000e+01
    4699,    1.750000e+01,    2.800000e+01,    1.050000e+01
    4700,    2.100000e+01,    2.800000e+01,    1.050000e+01
    4701,    2.450000e+01,    2.800000e+01,    1.050000e+01
    4702,    2.800000e+01,    2.800000e+01,    1.050000e+01
    4703,    3.150000e+01,    2.800000e+01,    1.050000e+01
    4704,    3.500000e+00,    3.150000e+01,    1.050000e+01
    4705,    7.000000e+00,    3.150000e+01,    1.050000e+01
    4706,    1.050000e+01,    3.150000e+01,    1.050000e+01
    4707,    1.400000e+01,    3.150000e+01,    1.050000e+01
    4708,    1.750000e+01,    3.150000e+01,    1.050000e+01
    4709,    2.100000e+01,    3.150000e+01,    1.050000e+01
    4710,    2.450000e+01,    3.150000e+01,    1.050000e+01
    4711,    2.800000e+01,    3.150000e+01,    1.050000e+01
    4712,    3.150000e+01,    3.150000e+01,    1.050000e+01
    4713,    1.750000e+01,    1.400000e+01,    1.750000e+01
    4714,    1.750000e+01,    1.400000e+01,    2.100000e+01
    4715,    1.750000e+01,    1.400000e+01,    2.450000e+01
    4716,    1.750000e+01,    1.400000e+01,    2.800000e+01
    4717,    1.750000e+01,    1.400000e+01,    3.150000e+01
    4718,    2.100000e+01,    1.400000e+01,    1.750000e+01
    4719,    2.100000e+01,    1.400000e+01,    2.100000e+01
    4720,    2.100000e+01,    1.400000e+01,    2.450000e+01
    4721,    2.100000e+01,    1.400000e+01,    2.800000e+01
    4722,    2.100000e+01,    1.400000e+01,    3.150000e+01
    4723,    2.450000e+01,    1.400000e+01,    1.750000e+01
    4724,    2.450000e+01,    1.400000e+01,    2.100000e+01
    4725,    2.450000e+01,    1.400000e+01,    2.450000e+01
    4726,    2.450000e+01,    1.400000e+01,    2.800000e+01
    4727,    2.450000e+01,    1.400000e+01,    3.150000e+01
    4728,    2.800000e+01,    1.400000e+01,    1.750000e+01
    4729,    2.800000e+01,    1.400000e+01,    2.100000e+01
    4730,    2.800000e+01,    1.400000e+01,    2.450000e+01
    4731,    2.800000e+01,    1.400000e+01,    2.800000e+01
    4732,    2.800000e+01,    1.400000e+01,    3.150000e+01
    4733,    3.150000e+01,    1.400000e+01,    1.750000e+01
    4734,    3.150000e+01,    1.400000e+01,    2.100000e+01
    4735,    3.150000e+01,    1.400000e+01,    2.450000e+01
    4736,    3.150000e+01,    1.400000e+01,    2.800000e+01
    4737,    3.150000e+01,    1.400000e+01,    3.150000e+01
    4738,    3.500000e+00,    1.750000e+01,    1.750000e+01
    4739,    7.000000e+00,    1.750000e+01,    1.750000e+01
    4740,    1.050000e+01,    1.750000e+01,    1.750000e+01
    4741,    1.400000e+01,    1.750000e+01,    1.750000e+01
    4742,    1.750000e+01,    1.750000e+01,    1.750000e+01
    4743,    2.100000e+01,    1.750000e+01,    1.750000e+01
    4744,    2.450000e+01,    1.750000e+01,    1.750000e+01
    4745,    2.800000e+01,    1.750000e+01,    1.750000e+01
    4746,    3.150000e+01,    1.750000e+01,    1.750000e+01
    4747,    3.500000e+00,    2.100000e+01,    1.750000e+01
    4748,    7.000000e+00,    2.100000e+01,    1.750000e+01
    4749,    1.050000e+01,    2.100000e+01,    1.750000e+01
    4750,    1.400000e+01,    2.100000e+01,    1.750000e+01
    4751,    1.750000e+01,    2.100000e+01,    1.750000e+01
    4752,    2.100000e+01,    2.100000e+01,    1.750000e+01
    4753,    2.450000e+01,    2.100000e+01,    1.750000e+01
    4754,    2.800000e+01,    2.100000e+01,    1.750000e+01
    4755,    3.150000e+01,    2.100000e+01,    1.750000e+01
    4756,    3.500000e+00,    2.450000e+01,    1.750000e+01
    4757,    7.000000e+00,    2.450000e+01,    1.750000e+01
    4758,    1.050000e+01,    2.450000e+01,    1.750000e+01
    4759,    1.400000e+01,    2.450000e+01,    1.750000e+01
    4760,    1.750000e+01,    2.450000e+01,    1.750000e+01
    4761,    2.100000e+01,    2.450000e+01,    1.750000e+01
    4762,    2.450000e+01,    2.450000e+01,    1.750000e+01
    4763,    2.800000e+01,    2.450000e+01,    1.750000e+01
    4764,    3.150000e+01,    2.450000e+01,    1.750000e+01
    4765,    3.500000e+00,    2.800000e+01,    1.750000e+01
    4766,    7.000000e+00,    2.800000e+01,    1.750000e+01
    4767,    1.050000e+01,    2.800000e+01,    1.750000e+01
    4768,    1.400000e+01,    2.800000e+01,    1.750000e+01
    4769,    1.750000e+01,    2.800000e+01,    1.750000e+01
    4770,    2.100000e+01,    2.800000e+01,    1.750000e+01
    4771,    2.450000e+01,    2.800000e+01,    1.750000e+01
    4772,    2.800000e+01,    2.800000e+01,    1.750000e+01
    4773,    3.150000e+01,    2.800000e+01,    1.750000e+01
    4774,    3.500000e+00,    3.150000e+01,    1.750000e+01
    4775,    7.000000e+00,    3.150000e+01,    1.750000e+01
    4776,    1.050000e+01,    3.150000e+01,    1.750000e+01
    4777,    1.400000e+01,    3.150000e+01,    1.750000e+01
    4778,    1.750000e+01,    3.150000e+01,    1.750000e+01
    4779,    2.100000e+01,    3.150000e+01,    1.750000e+01
    4780,    2.450000e+01,    3.150000e+01,    1.750000e+01
    4781,    2.800000e+01,    3.150000e+01,    1.750000e+01
    4782,    3.150000e+01,    3.150000e+01,    1.750000e+01
    4783,    3.500000e+00,    1.750000e+01,    2.100000e+01
    4784,    7.000000e+00,    1.750000e+01,    2.100000e+01
    4785,    1.050000e+01,    1.750000e+01,    2.100000e+01
    4786,    1.400000e+01,    1.750000e+01,    2.100000e+01
    4787,    1.750000e+01,    1.750000e+01,    2.100000e+01
    4788,    2.100000e+01,    1.750000e+01,    2.100000e+01
    4789,    2.450000e+01,    1.750000e+01,    2.100000e+01
    4790,    2.800000e+01,    1.750000e+01,    2.100000e+01
    4791,    3.150000e+01,    1.750000e+01,    2.100000e+01
    4792,    3.500000e+00,    2.100000e+01,    2.100000e+01
    4793,    7.000000e+00,    2.100000e+01,    2.100000e+01
    4794,    1.050000e+01,    2.100000e+01,    2.100000e+01
    4795,    1.400000e+01,    2.100000e+01,    2.100000e+01
    4796,    1.750000e+01,    2.100000e+01,    2.100000e+01
    4797,    2.100000e+01,    2.100000e+01,    2.100000e+01
    4798,    2.450000e+01,    2.100000e+01,    2.100000e+01
    4799,    2.800000e+01,    2.100000e+01,    2.100000e+01
    4800,    3.150000e+01,    2.100000e+01,    2.100000e+01
    4801,    3.500000e+00,    2.450000e+01,    2.100000e+01
    4802,    7.000000e+00,    2.450000e+01,    2.100000e+01
    4803,    1.050000e+01,    2.450000e+01,    2.100000e+01
    4804,    1.400000e+01,    2.450000e+01,    2.100000e+01
    4805,    1.750000e+01,    2.450000e+01,    2.100000e+01
    4806,    2.100000e+01,    2.450000e+01,    2.100000e+01
    4807,    2.450000e+01,    2.450000e+01,    2.100000e+01
    4808,    2.800000e+01,    2.450000e+01,    2.100000e+01
    4809,    3.150000e+01,    2.450000e+01,    2.100000e+01
    4810,    3.500000e+00,    2.800000e+01,    2.100000e+01
    4811,    7.000000e+00,    2.800000e+01,    2.100000e+01
    4812,    1.050000e+01,    2.800000e+01,    2.100000e+01
    4813,    1.400000e+01,    2.800000e+01,    2.100000e+01
    4814,    1.750000e+01,    2.800000e+01,    2.100000e+01
    4815,    2.100000e+01,    2.800000e+01,    2.100000e+01
    4816,    2.450000e+01,    2.800000e+01,    2.100000e+01
    4817,    2.800000e+01,    2.800000e+01,    2.100000e+01
    4818,    3.150000e+01,    2.800000e+01,    2.100000e+01
    4819,    3.500000e+00,    3.150000e+01,    2.100000e+01
    4820,    7.000000e+00,    3.150000e+01,    2.100000e+01
    4821,    1.050000e+01,    3.150000e+01,    2.100000e+01
    4822,    1.400000e+01,    3.150000e+01,    2.100000e+01
    4823,    1.750000e+01,    3.150000e+01,    2.100000e+01
    4824,    2.100000e+01,    3.150000e+01,    2.100000e+01
    4825,    2.450000e+01,    3.150000e+01,    2.100000e+01
    4826,    2.800000e+01,    3.150000e+01,    2.100000e+01
    4827,    3.150000e+01,    3.150000e+01,    2.100000e+01
    4828,    3.500000e+00,    1.750000e+01,    2.450000e+01
    4829,    7.000000e+00,    1.750000e+01,    2.450000e+01
    4830,    1.050000e+01,    1.750000e+01,    2.450000e+01
    4831,    1.400000e+01,    1.750000e+01,    2.450000e+01
    4832,    1.750000e+01,    1.750000e+01,    2.450000e+01
    4833,    2.100000e+01,    1.750000e+01,    2.450000e+01
    4834,    2.450000e+01,    1.750000e+01,    2.450000e+01
    4835,    2.800000e+01,    1.750000e+01,    2.450000e+01
    4836,    3.150000e+01,    1.750000e+01,    2.450000e+01
    4837,    3.500000e+00,    2.100000e+01,    2.450000e+01
    4838,    7.000000e+00,    2.100000e+01,    2.450000e+01
    4839,    1.050000e+01,    2.100000e+01,    2.450000e+01
    4840,    1.400000e+01,    2.100000e+01,    2.450000e+01
    4841,    1.750000e+01,    2.100000e+01,    2.450000e+01
    4842,    2.100000e+01,    2.100000e+01,    2.450000e+01
    4843,    2.450000e+01,    2.100000e+01,    2.450000e+01
    4844,    2.800000e+01,    2.100000e+01,    2.450000e+01
    4845,    3.150000e+01,    2.100000e+01,    2.450000e+01
    4846,    3.500000e+00,    2.450000e+01,    2.450000e+01
    4847,    7.000000e+00,    2.450000e+01,    2.450000e+01
    4848,    1.050000e+01,    2.450000e+01,    2.450000e+01
    4849,    1.400000e+01,    2.450000e+01,    2.450000e+01
    4850,    1.750000e+01,    2.450000e+01,    2.450000e+01
    4851,    2.100000e+01,    2.450000e+01,    2.450000e+01
    4852,    2.450000e+01,    2.450000e+01,    2.450000e+01
    4853,    2.800000e+01,    2.450000e+01,    2.450000e+01
    4854,    3.150000e+01,    2.450000e+01,    2.450000e+01
    4855,    3.500000e+00,    2.800000e+01,    2.450000e+01
    4856,    7.000000e+00,    2.800000e+01,    2.450000e+01
    4857,    1.050000e+01,    2.800000e+01,    2.450000e+01
    4858,    1.400000e+01,    2.800000e+01,    2.450000e+01
    4859,    1.750000e+01,    2.800000e+01,    2.450000e+01
    4860,    2.100000e+01,    2.800000e+01,    2.450000e+01
    4861,    2.450000e+01,    2.800000e+01,    2.450000e+01
    4862,    2.800000e+01,    2.800000e+01,    2.450000e+01
    4863,    3.150000e+01,    2.800000e+01,    2.450000e+01
    4864,    3.500000e+00,    3.150000e+01,    2.450000e+01
    4865,    7.000000e+00,    3.150000e+01,    2.450000e+01
    4866,    1.050000e+01,    3.150000e+01,    2.450000e+01
    4867,    1.400000e+01,    3.150000e+01,    2.450000e+01
    4868,    1.750000e+01,    3.150000e+01,    2.450000e+01
    4869,    2.100000e+01,    3.150000e+01,    2.450000e+01
    4870,    2.450000e+01,    3.150000e+01,    2.450000e+01
    4871,    2.800000e+01,    3.150000e+01,    2.450000e+01
    4872,    3.150000e+01,    3.150000e+01,    2.450000e+01
    4873,    3.500000e+00,    1.750000e+01,    2.800000e+01
    4874,    7.000000e+00,    1.750000e+01,    2.800000e+01
    4875,    1.050000e+01,    1.750000e+01,    2.800000e+01
    4876,    1.400000e+01,    1.750000e+01,    2.800000e+01
    4877,    1.750000e+01,    1.750000e+01,    2.800000e+01
    4878,    2.100000e+01,    1.750000e+01,    2.800000e+01
    4879,    2.450000e+01,    1.750000e+01,    2.800000e+01
    4880,    2.800000e+01,    1.750000e+01,    2.800000e+01
    4881,    3.150000e+01,    1.750000e+01,    2.800000e+01
    4882,    3.500000e+00,    2.100000e+01,    2.800000e+01
    4883,    7.000000e+00,    2.100000e+01,    2.800000e+01
    4884,    1.050000e+01,    2.100000e+01,    2.800000e+01
    4885,    1.400000e+01,    2.100000e+01,    2.800000e+01
    4886,    1.750000e+01,    2.100000e+01,    2.800000e+01
    4887,    2.100000e+01,    2.100000e+01,    2.800000e+01
    4888,    2.450000e+01,    2.100000e+01,    2.800000e+01
    4889,    2.800000e+01,    2.100000e+01,    2.800000e+01
    4890,    3.150000e+01,    2.100000e+01,    2.800000e+01
    4891,    3.500000e+00,    2.450000e+01,    2.800000e+01
    4892,    7.000000e+00,    2.450000e+01,    2.800000e+01
    4893,    1.050000e+01,    2.450000e+01,    2.800000e+01
    4894,    1.400000e+01,    2.450000e+01,    2.800000e+01
    4895,    1.750000e+01,    2.450000e+01,    2.800000e+01
    4896,    2.100000e+01,    2.450000e+01,    2.800000e+01
    4897,    2.450000e+01,    2.450000e+01,    2.800000e+01
    4898,    2.800000e+01,    2.450000e+01,    2.800000e+01
    4899,    3.150000e+01,    2.450000e+01,    2.800000e+01
    4900,    3.500000e+00,    2.800000e+01,    2.800000e+01
    4901,    7.000000e+00,    2.800000e+01,    2.800000e+01
    4902,    1.050000e+01,    2.800000e+01,    2.800000e+01
    4903,    1.400000e+01,    2.800000e+01,    2.800000e+01
    4904,    1.750000e+01,    2.800000e+01,    2.800000e+01
    4905,    2.100000e+01,    2.800000e+01,    2.800000e+01
    4906,    2.450000e+01,    2.800000e+01,    2.800000e+01
    4907,    2.800000e+01,    2.800000e+01,    2.800000e+01
    4908,    3.150000e+01,    2.800000e+01,    2.800000e+01
    4909,    3.500000e+00,    3.150000e+01,    2.800000e+01
    4910,    7.000000e+00,    3.150000e+01,    2.800000e+01
    4911,    1.050000e+01,    3.150000e+01,    2.800000e+01
    4912,    1.400000e+01,    3.150000e+01,    2.800000e+01
    4913,    1.750000e+01,    3.150000e+01,    2.800000e+01
    4914,    2.100000e+01,    3.150000e+01,    2.800000e+01
    4915,    2.450000e+01,    3.150000e+01,    2.800000e+01
    4916,    2.800000e+01,    3.150000e+01,    2.800000e+01
    4917,    3.150000e+01,    3.150000e+01,    2.800000e+01
    4918,    3.500000e+00,    1.750000e+01,    3.150000e+01
    4919,    7.000000e+00,    1.750000e+01,    3.150000e+01
    4920,    1.050000e+01,    1.750000e+01,    3.150000e+01
    4921,    1.400000e+01,    1.750000e+01,    3.150000e+01
    4922,    1.750000e+01,    1.750000e+01,    3.150000e+01
    4923,    2.100000e+01,    1.750000e+01,    3.150000e+01
    4924,    2.450000e+01,    1.750000e+01,    3.150000e+01
    4925,    2.800000e+01,    1.750000e+01,    3.150000e+01
    4926,    3.150000e+01,    1.750000e+01,    3.150000e+01
    4927,    3.500000e+00,    2.100000e+01,    3.150000e+01
    4928,    7.000000e+00,    2.100000e+01,    3.150000e+01
    4929,    1.050000e+01,    2.100000e+01,    3.150000e+01
    4930,    1.400000e+01,    2.100000e+01,    3.150000e+01
    4931,    1.750000e+01,    2.100000e+01,    3.150000e+01
    4932,    2.100000e+01,    2.100000e+01,    3.150000e+01
    4933,    2.450000e+01,    2.100000e+01,    3.150000e+01
    4934,    2.800000e+01,    2.100000e+01,    3.150000e+01
    4935,    3.150000e+01,    2.100000e+01,    3.150000e+01
    4936,    3.500000e+00,    2.450000e+01,    3.150000e+01
    4937,    7.000000e+00,    2.450000e+01,    3.150000e+01
    4938,    1.050000e+01,    2.450000e+01,    3.150000e+01
    4939,    1.400000e+01,    2.450000e+01,    3.150000e+01
    4940,    1.750000e+01,    2.450000e+01,    3.150000e+01
    4941,    2.100000e+01,    2.450000e+01,    3.150000e+01
    4942,    2.450000e+01,    2.450000e+01,    3.150000e+01
    4943,    2.800000e+01,    2.450000e+01,    3.150000e+01
    4944,    3.150000e+01,    2.450000e+01,    3.150000e+01
    4945,    3.500000e+00,    2.800000e+01,    3.150000e+01
    4946,    7.000000e+00,    2.800000e+01,    3.150000e+01
    4947,    1.050000e+01,    2.800000e+01,    3.150000e+01
    4948,    1.400000e+01,    2.800000e+01,    3.150000e+01
    4949,    1.750000e+01,    2.800000e+01,    3.150000e+01
    4950,    2.100000e+01,    2.800000e+01,    3.150000e+01
    4951,    2.450000e+01,    2.800000e+01,    3.150000e+01
    4952,    2.800000e+01,    2.800000e+01,    3.150000e+01
    4953,    3.150000e+01,    2.800000e+01,    3.150000e+01
    4954,    3.500000e+00,    3.150000e+01,    3.150000e+01
    4955,    7.000000e+00,    3.150000e+01,    3.150000e+01
    4956,    1.050000e+01,    3.150000e+01,    3.150000e+01
    4957,    1.400000e+01,    3.150000e+01,    3.150000e+01
    4958,    1.750000e+01,    3.150000e+01,    3.150000e+01
    4959,    2.100000e+01,    3.150000e+01,    3.150000e+01
    4960,    2.450000e+01,    3.150000e+01,    3.150000e+01
    4961,    2.800000e+01,    3.150000e+01,    3.150000e+01
    4962,    3.150000e+01,    3.150000e+01,    3.150000e+01
    4963,    1.750000e+01,    3.500000e+00,    1.750000e+01
    4964,    2.100000e+01,    3.500000e+00,    1.750000e+01
    4965,    2.450000e+01,    3.500000e+00,    1.750000e+01
    4966,    2.800000e+01,    3.500000e+00,    1.750000e+01
    4967,    3.150000e+01,    3.500000e+00,    1.750000e+01
    4968,    1.750000e+01,    7.000000e+00,    1.750000e+01
    4969,    2.100000e+01,    7.000000e+00,    1.750000e+01
    4970,    2.450000e+01,    7.000000e+00,    1.750000e+01
    4971,    2.800000e+01,    7.000000e+00,    1.750000e+01
    4972,    3.150000e+01,    7.000000e+00,    1.750000e+01
    4973,    1.750000e+01,    1.050000e+01,    1.750000e+01
    4974,    2.100000e+01,    1.050000e+01,    1.750000e+01
    4975,    2.450000e+01,    1.050000e+01,    1.750000e+01
    4976,    2.800000e+01,    1.050000e+01,    1.750000e+01
    4977,    3.150000e+01,    1.050000e+01,    1.750000e+01
    4978,    1.750000e+01,    3.500000e+00,    2.100000e+01
    4979,    2.100000e+01,    3.500000e+00,    2.100000e+01
    4980,    2.450000e+01,    3.500000e+00,    2.100000e+01
    4981,    2.800000e+01,    3.500000e+00,    2.100000e+01
    4982,    3.150000e+01,    3.500000e+00,    2.100000e+01
    4983,    1.750000e+01,    7.000000e+00,    2.100000e+01
    4984,    2.100000e+01,    7.000000e+00,    2.100000e+01
    4985,    2.450000e+01,    7.000000e+00,    2.100000e+01
    4986,    2.800000e+01,    7.000000e+00,    2.100000e+01
    4987,    3.150000e+01,    7.000000e+00,    2.100000e+01
    4988,    1.750000e+01,    1.050000e+01,    2.100000e+01
    4989,    2.100000e+01,    1.050000e+01,    2.100000e+01
    4990,    2.450000e+01,    1.050000e+01,    2.100000e+01
    4991,    2.800000e+01,    1.050000e+01,    2.100000e+01
    4992,    3.150000e+01,    1.050000e+01,    2.100000e+01
    4993,    1.750000e+01,    3.500000e+00,    2.450000e+01
    4994,    2.100000e+01,    3.500000e+00,    2.450000e+01
    4995,    2.450000e+01,    3.500000e+00,    2.450000e+01
    4996,    2.800000e+01,    3.500000e+00,    2.450000e+01
    4997,    3.150000e+01,    3.500000e+00,    2.450000e+01
    4998,    1.750000e+01,    7.000000e+00,    2.450000e+01
    4999,    2.100000e+01,    7.000000e+00,    2.450000e+01
    5000,    2.450000e+01,    7.000000e+00,    2.450000e+01
    5001,    2.800000e+01,    7.000000e+00,    2.450000e+01
    5002,    3.150000e+01,    7.000000e+00,    2.450000e+01
    5003,    1.750000e+01,    1.050000e+01,    2.450000e+01
    5004,    2.100000e+01,    1.050000e+01,    2.450000e+01
    5005,    2.450000e+01,    1.050000e+01,    2.450000e+01
    5006,    2.800000e+01,    1.050000e+01,    2.450000e+01
    5007,    3.150000e+01,    1.050000e+01,    2.450000e+01
    5008,    1.750000e+01,    3.500000e+00,    2.800000e+01
    5009,    2.100000e+01,    3.500000e+00,    2.800000e+01
    5010,    2.450000e+01,    3.500000e+00,    2.800000e+01
    5011,    2.800000e+01,    3.500000e+00,    2.800000e+01
    5012,    3.150000e+01,    3.500000e+00,    2.800000e+01
    5013,    1.750000e+01,    7.000000e+00,    2.800000e+01
    5014,    2.100000e+01,    7.000000e+00,    2.800000e+01
    5015,    2.450000e+01,    7.000000e+00,    2.800000e+01
    5016,    2.800000e+01,    7.000000e+00,    2.800000e+01
    5017,    3.150000e+01,    7.000000e+00,    2.800000e+01
    5018,    1.750000e+01,    1.050000e+01,    2.800000e+01
    5019,    2.100000e+01,    1.050000e+01,    2.800000e+01
    5020,    2.450000e+01,    1.050000e+01,    2.800000e+01
    5021,    2.800000e+01,    1.050000e+01,    2.800000e+01
    5022,    3.150000e+01,    1.050000e+01,    2.800000e+01
    5023,    1.750000e+01,    3.500000e+00,    3.150000e+01
    5024,    2.100000e+01,    3.500000e+00,    3.150000e+01
    5025,    2.450000e+01,    3.500000e+00,    3.150000e+01
    5026,    2.800000e+01,    3.500000e+00,    3.150000e+01
    5027,    3.150000e+01,    3.500000e+00,    3.150000e+01
    5028,    1.750000e+01,    7.000000e+00,    3.150000e+01
    5029,    2.100000e+01,    7.000000e+00,    3.150000e+01
    5030,    2.450000e+01,    7.000000e+00,    3.150000e+01
    5031,    2.800000e+01,    7.000000e+00,    3.150000e+01
    5032,    3.150000e+01,    7.000000e+00,    3.150000e+01
    5033,    1.750000e+01,    1.050000e+01,    3.150000e+01
    5034,    2.100000e+01,    1.050000e+01,    3.150000e+01
    5035,    2.450000e+01,    1.050000e+01,    3.150000e+01
    5036,    2.800000e+01,    1.050000e+01,    3.150000e+01
    5037,    3.150000e+01,    1.050000e+01,    3.150000e+01
    5038,    1.400000e+01,    1.516667e+01,    1.400000e+01
    5039,    1.516667e+01,    1.400000e+01,    1.400000e+01
    5040,    1.400000e+01,    1.400000e+01,    1.283333e+01
    5041,    1.516667e+01,    1.516667e+01,    1.400000e+01
    5042,    1.516667e+01,    1.400000e+01,    1.283333e+01
    5043,    1.400000e+01,    1.516667e+01,    1.283333e+01
    5044,    1.516667e+01,    1.516667e+01,    1.283333e+01
    5045,    1.516667e+01,    0.000000e+00,    1.400000e+01
    5046,    1.400000e+01,    0.000000e+00,    1.283333e+01
    5047,    1.516667e+01,    3.500000e+00,    1.400000e+01
    5048,    1.400000e+01,    3.500000e+00,    1.283333e+01
    5049,    1.516667e+01,    0.000000e+00,    1.283333e+01
    5050,    1.516667e+01,    3.500000e+00,    1.283333e+01
    5051,    1.516667e+01,    7.000000e+00,    1.400000e+01
    5052,    1.400000e+01,    7.000000e+00,    1.283333e+01
    5053,    1.516667e+01,    7.000000e+00,    1.283333e+01
    5054,    1.516667e+01,    1.050000e+01,    1.400000e+01
    5055,    1.400000e+01,    1.050000e+01,    1.283333e+01
    5056,    1.516667e+01,    1.050000e+01,    1.283333e+01
    5057,    0.000000e+00,    1.516667e+01,    1.400000e+01
    5058,    0.000000e+00,    1.400000e+01,    1.283333e+01
    5059,    3.500000e+00,    1.516667e+01,    1.400000e+01
    5060,    3.500000e+00,    1.400000e+01,    1.283333e+01
    5061,    0.000000e+00,    1.516667e+01,    1.283333e+01
    5062,    3.500000e+00,    1.516667e+01,    1.283333e+01
    5063,    7.000000e+00,    1.516667e+01,    1.400000e+01
    5064,    7.000000e+00,    1.400000e+01,    1.283333e+01
    5065,    7.000000e+00,    1.516667e+01,    1.283333e+01
    5066,    1.050000e+01,    1.516667e+01,    1.400000e+01
    5067,    1.050000e+01,    1.400000e+01,    1.283333e+01
    5068,    1.050000e+01,    1.516667e+01,    1.283333e+01
    5069,    1.516667e+01,    1.400000e+01,    1.750000e+01
    5070,    1.400000e+01,    1.516667e+01,    1.750000e+01
    5071,    1.516667e+01,    1.516667e+01,    1.750000e+01
    5072,    1.516667e+01,    1.400000e+01,    2.100000e+01
    5073,    1.400000e+01,    1.516667e+01,    2.100000e+01
    5074,    1.516667e+01,    1.516667e+01,    2.100000e+01
    5075,    1.516667e+01,    1.400000e+01,    2.450000e+01
    5076,    1.400000e+01,    1.516667e+01,    2.450000e+01
    5077,    1.516667e+01,    1.516667e+01,    2.450000e+01
    5078,    1.516667e+01,    1.400000e+01,    2.800000e+01
    5079,    1.400000e+01,    1.516667e+01,    2.800000e+01
    5080,    1.516667e+01,    1.516667e+01,    2.800000e+01
    5081,    1.516667e+01,    1.400000e+01,    3.150000e+01
    5082,    1.400000e+01,    1.516667e+01,    3.150000e+01
    5083,    1.516667e+01,    1.516667e+01,    3.150000e+01
    5084,    1.516667e+01,    1.400000e+01,    3.500000e+01
    5085,    1.400000e+01,    1.516667e+01,    3.500000e+01
    5086,    1.516667e+01,    1.516667e+01,    3.500000e+01
    5087,    0.000000e+00,    0.000000e+00,    1.283333e+01
    5088,    3.500000e+00,    3.500000e+00,    1.283333e+01
    5089,    3.500000e+00,    0.000000e+00,    1.283333e+01
    5090,    0.000000e+00,    3.500000e+00,    1.283333e+01
    5091,    7.000000e+00,    3.500000e+00,    1.283333e+01
    5092,    7.000000e+00,    0.000000e+00,    1.283333e+01
    5093,    1.050000e+01,    3.500000e+00,    1.283333e+01
    5094,    1.050000e+01,    0.000000e+00,    1.283333e+01
    5095,    3.500000e+00,    7.000000e+00,    1.283333e+01
    5096,    0.000000e+00,    7.000000e+00,    1.283333e+01
    5097,    7.000000e+00,    7.000000e+00,    1.283333e+01
    5098,    1.050000e+01,    7.000000e+00,    1.283333e+01
    5099,    3.500000e+00,    1.050000e+01,    1.283333e+01
    5100,    0.000000e+00,    1.050000e+01,    1.283333e+01
    5101,    7.000000e+00,    1.050000e+01,    1.283333e+01
    5102,    1.050000e+01,    1.050000e+01,    1.283333e+01
    5103,    0.000000e+00,    1.516667e+01,    1.750000e+01
    5104,    3.500000e+00,    1.516667e+01,    1.750000e+01
    5105,    7.000000e+00,    1.516667e+01,    1.750000e+01
    5106,    1.050000e+01,    1.516667e+01,    1.750000e+01
    5107,    0.000000e+00,    1.516667e+01,    2.100000e+01
    5108,    3.500000e+00,    1.516667e+01,    2.100000e+01
    5109,    7.000000e+00,    1.516667e+01,    2.100000e+01
    5110,    1.050000e+01,    1.516667e+01,    2.100000e+01
    5111,    0.000000e+00,    1.516667e+01,    2.450000e+01
    5112,    3.500000e+00,    1.516667e+01,    2.450000e+01
    5113,    7.000000e+00,    1.516667e+01,    2.450000e+01
    5114,    1.050000e+01,    1.516667e+01,    2.450000e+01
    5115,    0.000000e+00,    1.516667e+01,    2.800000e+01
    5116,    3.500000e+00,    1.516667e+01,    2.800000e+01
    5117,    7.000000e+00,    1.516667e+01,    2.800000e+01
    5118,    1.050000e+01,    1.516667e+01,    2.800000e+01
    5119,    0.000000e+00,    1.516667e+01,    3.150000e+01
    5120,    3.500000e+00,    1.516667e+01,    3.150000e+01
    5121,    7.000000e+00,    1.516667e+01,    3.150000e+01
    5122,    1.050000e+01,    1.516667e+01,    3.150000e+01
    5123,    0.000000e+00,    1.516667e+01,    3.500000e+01
    5124,    3.500000e+00,    1.516667e+01,    3.500000e+01
    5125,    7.000000e+00,    1.516667e+01,    3.500000e+01
    5126,    1.050000e+01,    1.516667e+01,    3.500000e+01
    5127,    1.516667e+01,    3.500000e+00,    1.750000e+01
    5128,    1.516667e+01,    0.000000e+00,    1.750000e+01
    5129,    1.516667e+01,    7.000000e+00,    1.750000e+01
    5130,    1.516667e+01,    1.050000e+01,    1.750000e+01
    5131,    1.516667e+01,    3.500000e+00,    2.100000e+01
    5132,    1.516667e+01,    0.000000e+00,    2.100000e+01
    5133,    1.516667e+01,    7.000000e+00,    2.100000e+01
    5134,    1.516667e+01,    1.050000e+01,    2.100000e+01
    5135,    1.516667e+01,    3.500000e+00,    2.450000e+01
    5136,    1.516667e+01,    0.000000e+00,    2.450000e+01
    5137,    1.516667e+01,    7.000000e+00,    2.450000e+01
    5138,    1.516667e+01,    1.050000e+01,    2.450000e+01
    5139,    1.516667e+01,    3.500000e+00,    2.800000e+01
    5140,    1.516667e+01,    0.000000e+00,    2.800000e+01
    5141,    1.516667e+01,    7.000000e+00,    2.800000e+01
    5142,    1.516667e+01,    1.050000e+01,    2.800000e+01
    5143,    1.516667e+01,    3.500000e+00,    3.150000e+01
    5144,    1.516667e+01,    0.000000e+00,    3.150000e+01
    5145,    1.516667e+01,    7.000000e+00,    3.150000e+01
    5146,    1.516667e+01,    1.050000e+01,    3.150000e+01
    5147,    1.516667e+01,    3.500000e+00,    3.500000e+01
    5148,    1.516667e+01,    0.000000e+00,    3.500000e+01
    5149,    1.516667e+01,    7.000000e+00,    3.500000e+01
    5150,    1.516667e+01,    1.050000e+01,    3.500000e+01
    5151,    1.400000e+01,    1.283333e+01,    1.283333e+01
    5152,    1.400000e+01,    1.166667e+01,    1.283333e+01
    5153,    1.516667e+01,    1.166667e+01,    1.283333e+01
    5154,    1.516667e+01,    1.283333e+01,    1.283333e+01
    5155,    1.516667e+01,    1.166667e+01,    1.400000e+01
    5156,    1.516667e+01,    1.283333e+01,    1.400000e+01
    5157,    1.400000e+01,    1.283333e+01,    1.400000e+01
    5158,    1.400000e+01,    1.166667e+01,    1.400000e+01
    5159,    7.000000e+00,    1.283333e+01,    1.283333e+01
    5160,    7.000000e+00,    1.166667e+01,    1.283333e+01
    5161,    1.050000e+01,    1.166667e+01,    1.283333e+01
    5162,    1.050000e+01,    1.283333e+01,    1.283333e+01
    5163,    1.050000e+01,    1.283333e+01,    1.400000e+01
    5164,    1.050000e+01,    1.166667e+01,    1.400000e+01
    5165,    7.000000e+00,    1.283333e+01,    1.400000e+01
    5166,    7.000000e+00,    1.166667e+01,    1.400000e+01
    5167,    1.400000e+01,    1.166667e+01,    1.750000e+01
    5168,    1.400000e+01,    1.283333e+01,    1.750000e+01
    5169,    1.516667e+01,    1.166667e+01,    1.750000e+01
    5170,    1.516667e+01,    1.283333e+01,    1.750000e+01
    5171,    1.516667e+01,    1.166667e+01,    2.100000e+01
    5172,    1.516667e+01,    1.283333e+01,    2.100000e+01
    5173,    1.400000e+01,    1.166667e+01,    2.100000e+01
    5174,    1.400000e+01,    1.283333e+01,    2.100000e+01
    5175,    1.516667e+01,    1.166667e+01,    2.450000e+01
    5176,    1.516667e+01,    1.283333e+01,    2.450000e+01
    5177,    1.400000e+01,    1.166667e+01,    2.450000e+01
    5178,    1.400000e+01,    1.283333e+01,    2.450000e+01
    5179,    1.400000e+01,    1.166667e+01,    2.800000e+01
    5180,    1.400000e+01,    1.283333e+01,    2.800000e+01
    5181,    1.516667e+01,    1.166667e+01,    2.800000e+01
    5182,    1.516667e+01,    1.283333e+01,    2.800000e+01
    5183,    1.516667e+01,    1.166667e+01,    3.150000e+01
    5184,    1.516667e+01,    1.283333e+01,    3.150000e+01
    5185,    1.400000e+01,    1.166667e+01,    3.150000e+01
    5186,    1.400000e+01,    1.283333e+01,    3.150000e+01
    5187,    1.516667e+01,    1.166667e+01,    3.500000e+01
    5188,    1.516667e+01,    1.283333e+01,    3.500000e+01
    5189,    1.400000e+01,    1.283333e+01,    3.500000e+01
    5190,    1.400000e+01,    1.166667e+01,    3.500000e+01
    5191,    3.500000e+00,    1.283333e+01,    1.283333e+01
    5192,    3.500000e+00,    1.166667e+01,    1.283333e+01
    5193,    3.500000e+00,    1.283333e+01,    1.400000e+01
    5194,    3.500000e+00,    1.166667e+01,    1.400000e+01
    5195,    0.000000e+00,    1.166667e+01,    1.283333e+01
    5196,    0.000000e+00,    1.283333e+01,    1.283333e+01
    5197,    0.000000e+00,    1.166667e+01,    1.400000e+01
    5198,    0.000000e+00,    1.283333e+01,    1.400000e+01
    5199,    1.633333e+01,    1.166667e+01,    1.750000e+01
    5200,    1.633333e+01,    1.283333e+01,    1.750000e+01
    5201,    1.633333e+01,    1.166667e+01,    2.100000e+01
    5202,    1.633333e+01,    1.283333e+01,    2.100000e+01
    5203,    7.000000e+00,    1.283333e+01,    1.166667e+01
    5204,    7.000000e+00,    1.166667e+01,    1.166667e+01
    5205,    3.500000e+00,    1.283333e+01,    1.166667e+01
    5206,    3.500000e+00,    1.166667e+01,    1.166667e+01
    5207,    0.000000e+00,    1.283333e+01,    1.166667e+01
    5208,    0.000000e+00,    1.166667e+01,    1.166667e+01
    5209,    1.633333e+01,    1.166667e+01,    2.800000e+01
    5210,    1.633333e+01,    1.283333e+01,    2.800000e+01
    5211,    1.633333e+01,    1.166667e+01,    3.150000e+01
    5212,    1.633333e+01,    1.283333e+01,    3.150000e+01
    5213,    1.633333e+01,    1.166667e+01,    3.500000e+01
    5214,    1.633333e+01,    1.283333e+01,    3.500000e+01
    5215,    1.633333e+01,    1.166667e+01,    2.450000e+01
    5216,    1.633333e+01,    1.283333e+01,    2.450000e+01
    5217,    1.633333e+01,    1.166667e+01,    1.400000e+01
    5218,    1.633333e+01,    1.283333e+01,    1.400000e+01
    5219,    1.633333e+01,    1.166667e+01,    1.166667e+01
    5220,    1.633333e+01,    1.283333e+01,    1.166667e+01
    5221,    1.050000e+01,    1.166667e+01,    1.166667e+01
    5222,    1.050000e+01,    1.283333e+01,    1.166667e+01
    5223,    1.400000e+01,    1.283333e+01,    1.166667e+01
    5224,    1.400000e+01,    1.166667e+01,    1.166667e+01
    5225,    1.166667e+01,    1.400000e+01,    1.283333e+01
    5226,    1.283333e+01,    1.400000e+01,    1.283333e+01
    5227,    1.283333e+01,    1.516667e+01,    1.283333e+01
    5228,    1.166667e+01,    1.516667e+01,    1.283333e+01
    5229,    1.283333e+01,    1.516667e+01,    1.400000e+01
    5230,    1.166667e+01,    1.516667e+01,    1.400000e+01
    5231,    1.166667e+01,    1.400000e+01,    1.400000e+01
    5232,    1.283333e+01,    1.400000e+01,    1.400000e+01
    5233,    1.283333e+01,    1.516667e+01,    1.750000e+01
    5234,    1.166667e+01,    1.516667e+01,    1.750000e+01
    5235,    1.283333e+01,    1.400000e+01,    1.750000e+01
    5236,    1.166667e+01,    1.400000e+01,    1.750000e+01
    5237,    1.166667e+01,    1.283333e+01,    1.283333e+01
    5238,    1.283333e+01,    1.283333e+01,    1.283333e+01
    5239,    1.166667e+01,    1.283333e+01,    1.400000e+01
    5240,    1.283333e+01,    1.283333e+01,    1.400000e+01
    5241,    1.166667e+01,    1.166667e+01,    1.400000e+01
    5242,    1.283333e+01,    1.166667e+01,    1.400000e+01
    5243,    1.166667e+01,    1.166667e+01,    1.283333e+01
    5244,    1.283333e+01,    1.166667e+01,    1.283333e+01
    5245,    1.166667e+01,    7.000000e+00,    1.283333e+01
    5246,    1.283333e+01,    7.000000e+00,    1.283333e+01
    5247,    1.283333e+01,    1.050000e+01,    1.283333e+01
    5248,    1.166667e+01,    1.050000e+01,    1.283333e+01
    5249,    1.283333e+01,    1.050000e+01,    1.400000e+01
    5250,    1.166667e+01,    1.050000e+01,    1.400000e+01
    5251,    1.283333e+01,    7.000000e+00,    1.400000e+01
    5252,    1.166667e+01,    7.000000e+00,    1.400000e+01
    5253,    1.166667e+01,    0.000000e+00,    1.283333e+01
    5254,    1.283333e+01,    0.000000e+00,    1.283333e+01
    5255,    1.283333e+01,    3.500000e+00,    1.283333e+01
    5256,    1.166667e+01,    3.500000e+00,    1.283333e+01
    5257,    1.283333e+01,    3.500000e+00,    1.400000e+01
    5258,    1.166667e+01,    3.500000e+00,    1.400000e+01
    5259,    1.283333e+01,    0.000000e+00,    1.400000e+01
    5260,    1.166667e+01,    0.000000e+00,    1.400000e+01
    5261,    1.283333e+01,    1.400000e+01,    2.100000e+01
    5262,    1.166667e+01,    1.400000e+01,    2.100000e+01
    5263,    1.283333e+01,    1.516667e+01,    2.100000e+01
    5264,    1.166667e+01,    1.516667e+01,    2.100000e+01
    5265,    1.283333e+01,    1.516667e+01,    2.450000e+01
    5266,    1.166667e+01,    1.516667e+01,    2.450000e+01
    5267,    1.283333e+01,    1.400000e+01,    2.450000e+01
    5268,    1.166667e+01,    1.400000e+01,    2.450000e+01
    5269,    1.283333e+01,    1.400000e+01,    2.800000e+01
    5270,    1.166667e+01,    1.400000e+01,    2.800000e+01
    5271,    1.283333e+01,    1.516667e+01,    2.800000e+01
    5272,    1.166667e+01,    1.516667e+01,    2.800000e+01
    5273,    1.283333e+01,    1.516667e+01,    3.150000e+01
    5274,    1.166667e+01,    1.516667e+01,    3.150000e+01
    5275,    1.283333e+01,    1.400000e+01,    3.150000e+01
    5276,    1.166667e+01,    1.400000e+01,    3.150000e+01
    5277,    1.283333e+01,    1.516667e+01,    3.500000e+01
    5278,    1.166667e+01,    1.516667e+01,    3.500000e+01
    5279,    1.166667e+01,    1.400000e+01,    3.500000e+01
    5280,    1.283333e+01,    1.400000e+01,    3.500000e+01
    5281,    1.166667e+01,    1.283333e+01,    1.225000e+01
    5282,    1.283333e+01,    1.283333e+01,    1.225000e+01
    5283,    1.166667e+01,    1.166667e+01,    1.225000e+01
    5284,    1.283333e+01,    1.166667e+01,    1.225000e+01
    5285,    1.166667e+01,    7.000000e+00,    1.166667e+01
    5286,    1.283333e+01,    7.000000e+00,    1.166667e+01
    5287,    1.166667e+01,    1.050000e+01,    1.166667e+01
    5288,    1.283333e+01,    1.050000e+01,    1.166667e+01
    5289,    1.166667e+01,    0.000000e+00,    1.166667e+01
    5290,    1.283333e+01,    0.000000e+00,    1.166667e+01
    5291,    1.166667e+01,    3.500000e+00,    1.166667e+01
    5292,    1.283333e+01,    3.500000e+00,    1.166667e+01
    5293,    1.283333e+01,    1.633333e+01,    1.400000e+01
    5294,    1.166667e+01,    1.633333e+01,    1.400000e+01
    5295,    1.283333e+01,    1.633333e+01,    1.750000e+01
    5296,    1.166667e+01,    1.633333e+01,    1.750000e+01
    5297,    1.283333e+01,    1.633333e+01,    2.100000e+01
    5298,    1.166667e+01,    1.633333e+01,    2.100000e+01
    5299,    1.283333e+01,    1.633333e+01,    2.450000e+01
    5300,    1.166667e+01,    1.633333e+01,    2.450000e+01
    5301,    1.283333e+01,    1.633333e+01,    2.800000e+01
    5302,    1.166667e+01,    1.633333e+01,    2.800000e+01
    5303,    1.283333e+01,    1.633333e+01,    3.150000e+01
    5304,    1.166667e+01,    1.633333e+01,    3.150000e+01
    5305,    1.283333e+01,    1.633333e+01,    3.500000e+01
    5306,    1.166667e+01,    1.633333e+01,    3.500000e+01
    5307,    1.283333e+01,    1.633333e+01,    1.166667e+01
    5308,    1.166667e+01,    1.633333e+01,    1.166667e+01
    5309,    1.166667e+01,    1.400000e+01,    1.166667e+01
    5310,    1.283333e+01,    1.400000e+01,    1.166667e+01
    5311,    1.400000e+01,    1.283333e+01,    1.516667e+01
    5312,    1.400000e+01,    1.283333e+01,    1.633333e+01
    5313,    1.516667e+01,    1.283333e+01,    1.516667e+01
    5314,    1.516667e+01,    1.283333e+01,    1.633333e+01
    5315,    1.516667e+01,    1.166667e+01,    1.516667e+01
    5316,    1.516667e+01,    1.166667e+01,    1.633333e+01
    5317,    1.400000e+01,    1.166667e+01,    1.516667e+01
    5318,    1.400000e+01,    1.166667e+01,    1.633333e+01
    5319,    1.516667e+01,    7.000000e+00,    1.633333e+01
    5320,    1.516667e+01,    7.000000e+00,    1.516667e+01
    5321,    1.400000e+01,    7.000000e+00,    1.633333e+01
    5322,    1.400000e+01,    7.000000e+00,    1.516667e+01
    5323,    1.400000e+01,    1.050000e+01,    1.633333e+01
    5324,    1.400000e+01,    1.050000e+01,    1.516667e+01
    5325,    1.516667e+01,    1.050000e+01,    1.633333e+01
    5326,    1.516667e+01,    1.050000e+01,    1.516667e+01
    5327,    1.516667e+01,    3.500000e+00,    1.633333e+01
    5328,    1.516667e+01,    3.500000e+00,    1.516667e+01
    5329,    1.400000e+01,    3.500000e+00,    1.633333e+01
    5330,    1.400000e+01,    3.500000e+00,    1.516667e+01
    5331,    1.400000e+01,    1.400000e+01,    1.633333e+01
    5332,    1.400000e+01,    1.400000e+01,    1.516667e+01
    5333,    1.516667e+01,    1.400000e+01,    1.516667e+01
    5334,    1.516667e+01,    1.400000e+01,    1.633333e+01
    5335,    1.283333e+01,    1.400000e+01,    1.516667e+01
    5336,    1.283333e+01,    1.400000e+01,    1.633333e+01
    5337,    1.283333e+01,    1.516667e+01,    1.516667e+01
    5338,    1.283333e+01,    1.516667e+01,    1.633333e+01
    5339,    1.400000e+01,    1.516667e+01,    1.516667e+01
    5340,    1.400000e+01,    1.516667e+01,    1.633333e+01
    5341,    1.166667e+01,    1.400000e+01,    1.516667e+01
    5342,    1.166667e+01,    1.400000e+01,    1.633333e+01
    5343,    1.166667e+01,    1.516667e+01,    1.516667e+01
    5344,    1.166667e+01,    1.516667e+01,    1.633333e+01
    5345,    3.500000e+00,    1.400000e+01,    1.633333e+01
    5346,    3.500000e+00,    1.400000e+01,    1.516667e+01
    5347,    0.000000e+00,    1.400000e+01,    1.516667e+01
    5348,    0.000000e+00,    1.400000e+01,    1.633333e+01
    5349,    0.000000e+00,    1.516667e+01,    1.633333e+01
    5350,    0.000000e+00,    1.516667e+01,    1.516667e+01
    5351,    3.500000e+00,    1.516667e+01,    1.633333e+01
    5352,    3.500000e+00,    1.516667e+01,    1.516667e+01
    5353,    1.050000e+01,    1.400000e+01,    1.633333e+01
    5354,    1.050000e+01,    1.400000e+01,    1.516667e+01
    5355,    1.050000e+01,    1.516667e+01,    1.516667e+01
    5356,    1.050000e+01,    1.516667e+01,    1.633333e+01
    5357,    7.000000e+00,    1.400000e+01,    1.633333e+01
    5358,    7.000000e+00,    1.400000e+01,    1.516667e+01
    5359,    7.000000e+00,    1.516667e+01,    1.633333e+01
    5360,    7.000000e+00,    1.516667e+01,    1.516667e+01
    5361,    1.516667e+01,    0.000000e+00,    1.516667e+01
    5362,    1.516667e+01,    0.000000e+00,    1.633333e+01
    5363,    1.400000e+01,    0.000000e+00,    1.633333e+01
    5364,    1.400000e+01,    0.000000e+00,    1.516667e+01
    5365,    1.516667e+01,    1.516667e+01,    1.633333e+01
    5366,    1.516667e+01,    1.516667e+01,    1.516667e+01
    5367,    1.633333e+01,    7.000000e+00,    1.633333e+01
    5368,    1.633333e+01,    7.000000e+00,    1.516667e+01
    5369,    1.633333e+01,    1.050000e+01,    1.633333e+01
    5370,    1.633333e+01,    1.050000e+01,    1.516667e+01
    5371,    1.633333e+01,    1.400000e+01,    1.516667e+01
    5372,    1.633333e+01,    1.400000e+01,    1.633333e+01
    5373,    1.575000e+01,    1.283333e+01,    1.516667e+01
    5374,    1.575000e+01,    1.283333e+01,    1.633333e+01
    5375,    1.283333e+01,    1.575000e+01,    1.516667e+01
    5376,    1.283333e+01,    1.575000e+01,    1.633333e+01
    5377,    1.400000e+01,    1.633333e+01,    1.516667e+01
    5378,    1.400000e+01,    1.633333e+01,    1.633333e+01
    5379,    1.633333e+01,    0.000000e+00,    1.516667e+01
    5380,    1.633333e+01,    0.000000e+00,    1.633333e+01
    5381,    1.633333e+01,    3.500000e+00,    1.516667e+01
    5382,    1.633333e+01,    3.500000e+00,    1.633333e+01
    5383,    3.500000e+00,    1.633333e+01,    1.633333e+01
    5384,    3.500000e+00,    1.633333e+01,    1.516667e+01
    5385,    0.000000e+00,    1.633333e+01,    1.633333e+01
    5386,    0.000000e+00,    1.633333e+01,    1.516667e+01
    5387,    7.000000e+00,    1.633333e+01,    1.633333e+01
    5388,    7.000000e+00,    1.633333e+01,    1.516667e+01
    5389,    1.050000e+01,    1.633333e+01,    1.516667e+01
    5390,    1.050000e+01,    1.633333e+01,    1.633333e+01
    5391,    1.166667e+01,    1.575000e+01,    1.516667e+01
    5392,    1.166667e+01,    1.575000e+01,    1.633333e+01
    5393,    1.633333e+01,    1.633333e+01,    1.633333e+01
    5394,    1.633333e+01,    1.633333e+01,    1.516667e+01
    5395,    1.575000e+01,    1.166667e+01,    1.516667e+01
    5396,    1.575000e+01,    1.166667e+01,    1.633333e+01
    5397,    1.166667e+01,    1.166667e+00,    1.400000e+01
    5398,    1.166667e+01,    2.333333e+00,    1.400000e+01
    5399,    1.166667e+01,    1.166667e+00,    1.283333e+01
    5400,    1.166667e+01,    2.333333e+00,    1.283333e+01
    5401,    1.283333e+01,    1.166667e+00,    1.283333e+01
    5402,    1.283333e+01,    2.333333e+00,    1.283333e+01
    5403,    1.283333e+01,    1.166667e+00,    1.400000e+01
    5404,    1.283333e+01,    2.333333e+00,    1.400000e+01
    5405,    1.400000e+01,    2.333333e+00,    1.283333e+01
    5406,    1.400000e+01,    1.166667e+00,    1.283333e+01
    5407,    1.516667e+01,    1.166667e+00,    1.283333e+01
    5408,    1.516667e+01,    2.333333e+00,    1.283333e+01
    5409,    1.516667e+01,    1.166667e+00,    1.400000e+01
    5410,    1.516667e+01,    2.333333e+00,    1.400000e+01
    5411,    1.400000e+01,    2.333333e+00,    1.400000e+01
    5412,    1.400000e+01,    1.166667e+00,    1.400000e+01
    5413,    1.516667e+01,    2.333333e+00,    1.516667e+01
    5414,    1.516667e+01,    1.166667e+00,    1.516667e+01
    5415,    1.400000e+01,    2.333333e+00,    1.516667e+01
    5416,    1.400000e+01,    1.166667e+00,    1.516667e+01
    5417,    0.000000e+00,    1.166667e+00,    1.283333e+01
    5418,    0.000000e+00,    2.333333e+00,    1.283333e+01
    5419,    3.500000e+00,    1.166667e+00,    1.283333e+01
    5420,    3.500000e+00,    2.333333e+00,    1.283333e+01
    5421,    3.500000e+00,    2.333333e+00,    1.400000e+01
    5422,    3.500000e+00,    1.166667e+00,    1.400000e+01
    5423,    0.000000e+00,    1.166667e+00,    1.400000e+01
    5424,    0.000000e+00,    2.333333e+00,    1.400000e+01
    5425,    1.516667e+01,    2.333333e+00,    1.750000e+01
    5426,    1.516667e+01,    1.166667e+00,    1.750000e+01
    5427,    1.400000e+01,    1.166667e+00,    1.750000e+01
    5428,    1.400000e+01,    2.333333e+00,    1.750000e+01
    5429,    1.400000e+01,    2.333333e+00,    1.633333e+01
    5430,    1.400000e+01,    1.166667e+00,    1.633333e+01
    5431,    1.516667e+01,    2.333333e+00,    1.633333e+01
    5432,    1.516667e+01,    1.166667e+00,    1.633333e+01
    5433,    1.516667e+01,    1.166667e+00,    2.100000e+01
    5434,    1.516667e+01,    2.333333e+00,    2.100000e+01
    5435,    1.400000e+01,    1.166667e+00,    2.100000e+01
    5436,    1.400000e+01,    2.333333e+00,    2.100000e+01
    5437,    1.516667e+01,    1.166667e+00,    2.450000e+01
    5438,    1.516667e+01,    2.333333e+00,    2.450000e+01
    5439,    1.400000e+01,    1.166667e+00,    2.450000e+01
    5440,    1.400000e+01,    2.333333e+00,    2.450000e+01
    5441,    1.516667e+01,    1.166667e+00,    2.800000e+01
    5442,    1.516667e+01,    2.333333e+00,    2.800000e+01
    5443,    1.400000e+01,    1.166667e+00,    2.800000e+01
    5444,    1.400000e+01,    2.333333e+00,    2.800000e+01
    5445,    1.516667e+01,    1.166667e+00,    3.150000e+01
    5446,    1.516667e+01,    2.333333e+00,    3.150000e+01
    5447,    1.400000e+01,    1.166667e+00,    3.150000e+01
    5448,    1.400000e+01,    2.333333e+00,    3.150000e+01
    5449,    1.516667e+01,    1.166667e+00,    3.500000e+01
    5450,    1.516667e+01,    2.333333e+00,    3.500000e+01
    5451,    1.400000e+01,    2.333333e+00,    3.500000e+01
    5452,    1.400000e+01,    1.166667e+00,    3.500000e+01
    5453,    7.000000e+00,    1.166667e+00,    1.283333e+01
    5454,    7.000000e+00,    2.333333e+00,    1.283333e+01
    5455,    7.000000e+00,    2.333333e+00,    1.400000e+01
    5456,    7.000000e+00,    1.166667e+00,    1.400000e+01
    5457,    1.050000e+01,    1.166667e+00,    1.283333e+01
    5458,    1.050000e+01,    2.333333e+00,    1.283333e+01
    5459,    1.050000e+01,    2.333333e+00,    1.400000e+01
    5460,    1.050000e+01,    1.166667e+00,    1.400000e+01
    5461,    1.633333e+01,    1.166667e+00,    1.166667e+01
    5462,    1.633333e+01,    2.333333e+00,    1.166667e+01
    5463,    1.400000e+01,    1.166667e+00,    1.166667e+01
    5464,    1.400000e+01,    2.333333e+00,    1.166667e+01
    5465,    1.050000e+01,    1.166667e+00,    1.166667e+01
    5466,    1.050000e+01,    2.333333e+00,    1.166667e+01
    5467,    1.166667e+01,    1.166667e+00,    1.225000e+01
    5468,    1.166667e+01,    2.333333e+00,    1.225000e+01
    5469,    3.500000e+00,    1.166667e+00,    1.166667e+01
    5470,    3.500000e+00,    2.333333e+00,    1.166667e+01
    5471,    0.000000e+00,    1.166667e+00,    1.166667e+01
    5472,    0.000000e+00,    2.333333e+00,    1.166667e+01
    5473,    1.633333e+01,    1.166667e+00,    2.800000e+01
    5474,    1.633333e+01,    2.333333e+00,    2.800000e+01
    5475,    1.633333e+01,    1.166667e+00,    3.150000e+01
    5476,    1.633333e+01,    2.333333e+00,    3.150000e+01
    5477,    1.633333e+01,    2.333333e+00,    1.750000e+01
    5478,    1.633333e+01,    1.166667e+00,    1.750000e+01
    5479,    1.575000e+01,    2.333333e+00,    1.633333e+01
    5480,    1.575000e+01,    1.166667e+00,    1.633333e+01
    5481,    1.575000e+01,    2.333333e+00,    1.516667e+01
    5482,    1.575000e+01,    1.166667e+00,    1.516667e+01
    5483,    1.633333e+01,    2.333333e+00,    1.400000e+01
    5484,    1.633333e+01,    1.166667e+00,    1.400000e+01
    5485,    1.633333e+01,    2.333333e+00,    2.100000e+01
    5486,    1.633333e+01,    1.166667e+00,    2.100000e+01
    5487,    1.633333e+01,    1.166667e+00,    2.450000e+01
    5488,    1.633333e+01,    2.333333e+00,    2.450000e+01
    5489,    1.633333e+01,    1.166667e+00,    3.500000e+01
    5490,    1.633333e+01,    2.333333e+00,    3.500000e+01
    5491,    7.000000e+00,    1.166667e+00,    1.166667e+01
    5492,    7.000000e+00,    2.333333e+00,    1.166667e+01
    5493,    1.283333e+01,    1.166667e+00,    1.225000e+01
    5494,    1.283333e+01,    2.333333e+00,    1.225000e+01
    5495,    1.166667e+00,    1.400000e+01,    1.283333e+01
    5496,    2.333333e+00,    1.400000e+01,    1.283333e+01
    5497,    1.166667e+00,    1.400000e+01,    1.400000e+01
    5498,    2.333333e+00,    1.400000e+01,    1.400000e+01
    5499,    1.166667e+00,    1.283333e+01,    1.400000e+01
    5500,    2.333333e+00,    1.283333e+01,    1.400000e+01
    5501,    1.166667e+00,    1.283333e+01,    1.283333e+01
    5502,    2.333333e+00,    1.283333e+01,    1.283333e+01
    5503,    1.166667e+00,    1.516667e+01,    1.516667e+01
    5504,    2.333333e+00,    1.516667e+01,    1.516667e+01
    5505,    1.166667e+00,    1.400000e+01,    1.516667e+01
    5506,    2.333333e+00,    1.400000e+01,    1.516667e+01
    5507,    1.166667e+00,    1.516667e+01,    1.400000e+01
    5508,    2.333333e+00,    1.516667e+01,    1.400000e+01
    5509,    1.166667e+00,    1.516667e+01,    1.750000e+01
    5510,    2.333333e+00,    1.516667e+01,    1.750000e+01
    5511,    2.333333e+00,    1.400000e+01,    1.750000e+01
    5512,    1.166667e+00,    1.400000e+01,    1.750000e+01
    5513,    1.166667e+00,    1.400000e+01,    1.633333e+01
    5514,    2.333333e+00,    1.400000e+01,    1.633333e+01
    5515,    1.166667e+00,    1.516667e+01,    1.633333e+01
    5516,    2.333333e+00,    1.516667e+01,    1.633333e+01
    5517,    2.333333e+00,    1.400000e+01,    2.100000e+01
    5518,    1.166667e+00,    1.400000e+01,    2.100000e+01
    5519,    2.333333e+00,    1.516667e+01,    2.100000e+01
    5520,    1.166667e+00,    1.516667e+01,    2.100000e+01
    5521,    2.333333e+00,    1.516667e+01,    2.450000e+01
    5522,    1.166667e+00,    1.516667e+01,    2.450000e+01
    5523,    2.333333e+00,    1.400000e+01,    2.450000e+01
    5524,    1.166667e+00,    1.400000e+01,    2.450000e+01
    5525,    2.333333e+00,    1.400000e+01,    2.800000e+01
    5526,    1.166667e+00,    1.400000e+01,    2.800000e+01
    5527,    2.333333e+00,    1.516667e+01,    2.800000e+01
    5528,    1.166667e+00,    1.516667e+01,    2.800000e+01
    5529,    2.333333e+00,    1.516667e+01,    3.150000e+01
    5530,    1.166667e+00,    1.516667e+01,    3.150000e+01
    5531,    2.333333e+00,    1.400000e+01,    3.150000e+01
    5532,    1.166667e+00,    1.400000e+01,    3.150000e+01
    5533,    1.166667e+00,    1.166667e+01,    1.283333e+01
    5534,    2.333333e+00,    1.166667e+01,    1.283333e+01
    5535,    1.166667e+00,    1.166667e+01,    1.400000e+01
    5536,    2.333333e+00,    1.166667e+01,    1.400000e+01
    5537,    2.333333e+00,    1.050000e+01,    1.400000e+01
    5538,    1.166667e+00,    1.050000e+01,    1.400000e+01
    5539,    1.166667e+00,    1.050000e+01,    1.283333e+01
    5540,    2.333333e+00,    1.050000e+01,    1.283333e+01
    5541,    1.166667e+00,    7.000000e+00,    1.283333e+01
    5542,    2.333333e+00,    7.000000e+00,    1.283333e+01
    5543,    2.333333e+00,    7.000000e+00,    1.400000e+01
    5544,    1.166667e+00,    7.000000e+00,    1.400000e+01
    5545,    1.166667e+00,    3.500000e+00,    1.283333e+01
    5546,    2.333333e+00,    3.500000e+00,    1.283333e+01
    5547,    2.333333e+00,    3.500000e+00,    1.400000e+01
    5548,    1.166667e+00,    3.500000e+00,    1.400000e+01
    5549,    1.166667e+00,    2.333333e+00,    1.400000e+01
    5550,    2.333333e+00,    2.333333e+00,    1.400000e+01
    5551,    1.166667e+00,    2.333333e+00,    1.283333e+01
    5552,    2.333333e+00,    2.333333e+00,    1.283333e+01
    5553,    1.166667e+00,    1.166667e+00,    1.400000e+01
    5554,    2.333333e+00,    1.166667e+00,    1.400000e+01
    5555,    1.166667e+00,    1.166667e+00,    1.283333e+01
    5556,    2.333333e+00,    1.166667e+00,    1.283333e+01
    5557,    2.333333e+00,    0.000000e+00,    1.400000e+01
    5558,    1.166667e+00,    0.000000e+00,    1.400000e+01
    5559,    1.166667e+00,    0.000000e+00,    1.283333e+01
    5560,    2.333333e+00,    0.000000e+00,    1.283333e+01
    5561,    2.333333e+00,    1.516667e+01,    3.500000e+01
    5562,    1.166667e+00,    1.516667e+01,    3.500000e+01
    5563,    1.166667e+00,    1.400000e+01,    3.500000e+01
    5564,    2.333333e+00,    1.400000e+01,    3.500000e+01
    5565,    2.333333e+00,    1.516667e+01,    1.283333e+01
    5566,    1.166667e+00,    1.516667e+01,    1.283333e+01
    5567,    1.166667e+00,    1.575000e+01,    1.516667e+01
    5568,    2.333333e+00,    1.575000e+01,    1.516667e+01
    5569,    1.166667e+00,    1.633333e+01,    1.400000e+01
    5570,    2.333333e+00,    1.633333e+01,    1.400000e+01
    5571,    1.166667e+00,    1.633333e+01,    1.750000e+01
    5572,    2.333333e+00,    1.633333e+01,    1.750000e+01
    5573,    1.166667e+00,    1.575000e+01,    1.633333e+01
    5574,    2.333333e+00,    1.575000e+01,    1.633333e+01
    5575,    2.333333e+00,    1.633333e+01,    2.100000e+01
    5576,    1.166667e+00,    1.633333e+01,    2.100000e+01
    5577,    2.333333e+00,    1.633333e+01,    2.450000e+01
    5578,    1.166667e+00,    1.633333e+01,    2.450000e+01
    5579,    2.333333e+00,    1.633333e+01,    2.800000e+01
    5580,    1.166667e+00,    1.633333e+01,    2.800000e+01
    5581,    2.333333e+00,    1.633333e+01,    3.150000e+01
    5582,    1.166667e+00,    1.633333e+01,    3.150000e+01
    5583,    2.333333e+00,    1.633333e+01,    3.500000e+01
    5584,    1.166667e+00,    1.633333e+01,    3.500000e+01
    5585,    1.166667e+00,    1.166667e+00,    1.225000e+01
    5586,    2.333333e+00,    1.166667e+00,    1.225000e+01
    5587,    1.166667e+00,    0.000000e+00,    1.166667e+01
    5588,    2.333333e+00,    0.000000e+00,    1.166667e+01
    5589,    1.166667e+00,    1.166667e+01,    1.225000e+01
    5590,    2.333333e+00,    1.166667e+01,    1.225000e+01
    5591,    1.166667e+00,    1.050000e+01,    1.166667e+01
    5592,    2.333333e+00,    1.050000e+01,    1.166667e+01
    5593,    1.166667e+00,    1.283333e+01,    1.225000e+01
    5594,    2.333333e+00,    1.283333e+01,    1.225000e+01
    5595,    1.166667e+00,    7.000000e+00,    1.166667e+01
    5596,    2.333333e+00,    7.000000e+00,    1.166667e+01
    5597,    1.166667e+00,    2.333333e+00,    1.225000e+01
    5598,    2.333333e+00,    2.333333e+00,    1.225000e+01
    5599,    1.166667e+00,    3.500000e+00,    1.166667e+01
    5600,    2.333333e+00,    3.500000e+00,    1.166667e+01
    5601,    2.333333e+00,    1.633333e+01,    1.166667e+01
    5602,    1.166667e+00,    1.633333e+01,    1.166667e+01
    5603,    1.166667e+00,    1.400000e+01,    1.166667e+01
    5604,    2.333333e+00,    1.400000e+01,    1.166667e+01
    5605,    1.166667e+01,    8.166667e+00,    1.400000e+01
    5606,    1.166667e+01,    9.333333e+00,    1.400000e+01
    5607,    1.166667e+01,    8.166667e+00,    1.283333e+01
    5608,    1.166667e+01,    9.333333e+00,    1.283333e+01
    5609,    1.283333e+01,    8.166667e+00,    1.283333e+01
    5610,    1.283333e+01,    9.333333e+00,    1.283333e+01
    5611,    1.283333e+01,    8.166667e+00,    1.400000e+01
    5612,    1.283333e+01,    9.333333e+00,    1.400000e+01
    5613,    1.400000e+01,    9.333333e+00,    1.283333e+01
    5614,    1.400000e+01,    8.166667e+00,    1.283333e+01
    5615,    1.516667e+01,    8.166667e+00,    1.283333e+01
    5616,    1.516667e+01,    9.333333e+00,    1.283333e+01
    5617,    1.516667e+01,    8.166667e+00,    1.400000e+01
    5618,    1.516667e+01,    9.333333e+00,    1.400000e+01
    5619,    1.400000e+01,    9.333333e+00,    1.400000e+01
    5620,    1.400000e+01,    8.166667e+00,    1.400000e+01
    5621,    1.516667e+01,    9.333333e+00,    1.516667e+01
    5622,    1.516667e+01,    8.166667e+00,    1.516667e+01
    5623,    1.400000e+01,    9.333333e+00,    1.516667e+01
    5624,    1.400000e+01,    8.166667e+00,    1.516667e+01
    5625,    3.500000e+00,    9.333333e+00,    1.283333e+01
    5626,    3.500000e+00,    8.166667e+00,    1.283333e+01
    5627,    7.000000e+00,    8.166667e+00,    1.283333e+01
    5628,    7.000000e+00,    9.333333e+00,    1.283333e+01
    5629,    7.000000e+00,    9.333333e+00,    1.400000e+01
    5630,    7.000000e+00,    8.166667e+00,    1.400000e+01
    5631,    3.500000e+00,    9.333333e+00,    1.400000e+01
    5632,    3.500000e+00,    8.166667e+00,    1.400000e+01
    5633,    1.400000e+01,    8.166667e+00,    2.800000e+01
    5634,    1.400000e+01,    9.333333e+00,    2.800000e+01
    5635,    1.516667e+01,    8.166667e+00,    2.800000e+01
    5636,    1.516667e+01,    9.333333e+00,    2.800000e+01
    5637,    1.516667e+01,    8.166667e+00,    3.150000e+01
    5638,    1.516667e+01,    9.333333e+00,    3.150000e+01
    5639,    1.400000e+01,    8.166667e+00,    3.150000e+01
    5640,    1.400000e+01,    9.333333e+00,    3.150000e+01
    5641,    1.516667e+01,    9.333333e+00,    1.633333e+01
    5642,    1.516667e+01,    8.166667e+00,    1.633333e+01
    5643,    1.400000e+01,    9.333333e+00,    1.633333e+01
    5644,    1.400000e+01,    8.166667e+00,    1.633333e+01
    5645,    1.516667e+01,    9.333333e+00,    1.750000e+01
    5646,    1.516667e+01,    8.166667e+00,    1.750000e+01
    5647,    1.400000e+01,    8.166667e+00,    1.750000e+01
    5648,    1.400000e+01,    9.333333e+00,    1.750000e+01
    5649,    1.516667e+01,    8.166667e+00,    2.100000e+01
    5650,    1.516667e+01,    9.333333e+00,    2.100000e+01
    5651,    1.400000e+01,    8.166667e+00,    2.100000e+01
    5652,    1.400000e+01,    9.333333e+00,    2.100000e+01
    5653,    1.516667e+01,    8.166667e+00,    2.450000e+01
    5654,    1.516667e+01,    9.333333e+00,    2.450000e+01
    5655,    1.400000e+01,    8.166667e+00,    2.450000e+01
    5656,    1.400000e+01,    9.333333e+00,    2.450000e+01
    5657,    1.516667e+01,    8.166667e+00,    3.500000e+01
    5658,    1.516667e+01,    9.333333e+00,    3.500000e+01
    5659,    1.400000e+01,    9.333333e+00,    3.500000e+01
    5660,    1.400000e+01,    8.166667e+00,    3.500000e+01
    5661,    0.000000e+00,    8.166667e+00,    1.400000e+01
    5662,    0.000000e+00,    9.333333e+00,    1.400000e+01
    5663,    0.000000e+00,    8.166667e+00,    1.283333e+01
    5664,    0.000000e+00,    9.333333e+00,    1.283333e+01
    5665,    1.166667e+00,    8.166667e+00,    1.283333e+01
    5666,    1.166667e+00,    9.333333e+00,    1.283333e+01
    5667,    1.166667e+00,    8.166667e+00,    1.400000e+01
    5668,    1.166667e+00,    9.333333e+00,    1.400000e+01
    5669,    2.333333e+00,    8.166667e+00,    1.283333e+01
    5670,    2.333333e+00,    9.333333e+00,    1.283333e+01
    5671,    2.333333e+00,    8.166667e+00,    1.400000e+01
    5672,    2.333333e+00,    9.333333e+00,    1.400000e+01
    5673,    1.050000e+01,    8.166667e+00,    1.283333e+01
    5674,    1.050000e+01,    9.333333e+00,    1.283333e+01
    5675,    1.050000e+01,    9.333333e+00,    1.400000e+01
    5676,    1.050000e+01,    8.166667e+00,    1.400000e+01
    5677,    1.633333e+01,    8.166667e+00,    1.166667e+01
    5678,    1.633333e+01,    9.333333e+00,    1.166667e+01
    5679,    1.400000e+01,    8.166667e+00,    1.166667e+01
    5680,    1.400000e+01,    9.333333e+00,    1.166667e+01
    5681,    1.050000e+01,    8.166667e+00,    1.166667e+01
    5682,    1.050000e+01,    9.333333e+00,    1.166667e+01
    5683,    1.166667e+01,    8.166667e+00,    1.225000e+01
    5684,    1.166667e+01,    9.333333e+00,    1.225000e+01
    5685,    7.000000e+00,    8.166667e+00,    1.166667e+01
    5686,    7.000000e+00,    9.333333e+00,    1.166667e+01
    5687,    3.500000e+00,    8.166667e+00,    1.166667e+01
    5688,    3.500000e+00,    9.333333e+00,    1.166667e+01
    5689,    0.000000e+00,    8.166667e+00,    1.166667e+01
    5690,    0.000000e+00,    9.333333e+00,    1.166667e+01
    5691,    1.166667e+00,    8.166667e+00,    1.225000e+01
    5692,    1.166667e+00,    9.333333e+00,    1.225000e+01
    5693,    2.333333e+00,    8.166667e+00,    1.225000e+01
    5694,    2.333333e+00,    9.333333e+00,    1.225000e+01
    5695,    1.633333e+01,    8.166667e+00,    2.800000e+01
    5696,    1.633333e+01,    9.333333e+00,    2.800000e+01
    5697,    1.633333e+01,    8.166667e+00,    3.150000e+01
    5698,    1.633333e+01,    9.333333e+00,    3.150000e+01
    5699,    1.575000e+01,    9.333333e+00,    1.633333e+01
    5700,    1.575000e+01,    8.166667e+00,    1.633333e+01
    5701,    1.575000e+01,    9.333333e+00,    1.516667e+01
    5702,    1.575000e+01,    8.166667e+00,    1.516667e+01
    5703,    1.633333e+01,    9.333333e+00,    1.400000e+01
    5704,    1.633333e+01,    8.166667e+00,    1.400000e+01
    5705,    1.633333e+01,    9.333333e+00,    1.750000e+01
    5706,    1.633333e+01,    8.166667e+00,    1.750000e+01
    5707,    1.633333e+01,    9.333333e+00,    2.100000e+01
    5708,    1.633333e+01,    8.166667e+00,    2.100000e+01
    5709,    1.633333e+01,    8.166667e+00,    2.450000e+01
    5710,    1.633333e+01,    9.333333e+00,    2.450000e+01
    5711,    1.633333e+01,    8.166667e+00,    3.500000e+01
    5712,    1.633333e+01,    9.333333e+00,    3.500000e+01
    5713,    1.283333e+01,    8.166667e+00,    1.225000e+01
    5714,    1.283333e+01,    9.333333e+00,    1.225000e+01
    5715,    1.516667e+01,    5.833333e+00,    1.633333e+01
    5716,    1.516667e+01,    4.666667e+00,    1.633333e+01
    5717,    1.400000e+01,    5.833333e+00,    1.633333e+01
    5718,    1.400000e+01,    4.666667e+00,    1.633333e+01
    5719,    1.400000e+01,    5.833333e+00,    1.516667e+01
    5720,    1.400000e+01,    4.666667e+00,    1.516667e+01
    5721,    1.516667e+01,    5.833333e+00,    1.516667e+01
    5722,    1.516667e+01,    4.666667e+00,    1.516667e+01
    5723,    1.400000e+01,    5.833333e+00,    1.283333e+01
    5724,    1.400000e+01,    4.666667e+00,    1.283333e+01
    5725,    1.516667e+01,    4.666667e+00,    1.283333e+01
    5726,    1.516667e+01,    5.833333e+00,    1.283333e+01
    5727,    1.516667e+01,    4.666667e+00,    1.400000e+01
    5728,    1.516667e+01,    5.833333e+00,    1.400000e+01
    5729,    1.400000e+01,    5.833333e+00,    1.400000e+01
    5730,    1.400000e+01,    4.666667e+00,    1.400000e+01
    5731,    1.166667e+01,    4.666667e+00,    1.400000e+01
    5732,    1.166667e+01,    5.833333e+00,    1.400000e+01
    5733,    1.166667e+01,    4.666667e+00,    1.283333e+01
    5734,    1.166667e+01,    5.833333e+00,    1.283333e+01
    5735,    1.283333e+01,    4.666667e+00,    1.283333e+01
    5736,    1.283333e+01,    5.833333e+00,    1.283333e+01
    5737,    1.283333e+01,    4.666667e+00,    1.400000e+01
    5738,    1.283333e+01,    5.833333e+00,    1.400000e+01
    5739,    3.500000e+00,    5.833333e+00,    1.283333e+01
    5740,    3.500000e+00,    4.666667e+00,    1.283333e+01
    5741,    7.000000e+00,    4.666667e+00,    1.283333e+01
    5742,    7.000000e+00,    5.833333e+00,    1.283333e+01
    5743,    7.000000e+00,    5.833333e+00,    1.400000e+01
    5744,    7.000000e+00,    4.666667e+00,    1.400000e+01
    5745,    3.500000e+00,    5.833333e+00,    1.400000e+01
    5746,    3.500000e+00,    4.666667e+00,    1.400000e+01
    5747,    1.400000e+01,    4.666667e+00,    2.800000e+01
    5748,    1.400000e+01,    5.833333e+00,    2.800000e+01
    5749,    1.516667e+01,    4.666667e+00,    2.800000e+01
    5750,    1.516667e+01,    5.833333e+00,    2.800000e+01
    5751,    1.516667e+01,    4.666667e+00,    3.150000e+01
    5752,    1.516667e+01,    5.833333e+00,    3.150000e+01
    5753,    1.400000e+01,    4.666667e+00,    3.150000e+01
    5754,    1.400000e+01,    5.833333e+00,    3.150000e+01
    5755,    1.516667e+01,    5.833333e+00,    1.750000e+01
    5756,    1.516667e+01,    4.666667e+00,    1.750000e+01
    5757,    1.400000e+01,    4.666667e+00,    1.750000e+01
    5758,    1.400000e+01,    5.833333e+00,    1.750000e+01
    5759,    1.516667e+01,    4.666667e+00,    2.100000e+01
    5760,    1.516667e+01,    5.833333e+00,    2.100000e+01
    5761,    1.400000e+01,    4.666667e+00,    2.100000e+01
    5762,    1.400000e+01,    5.833333e+00,    2.100000e+01
    5763,    1.516667e+01,    4.666667e+00,    2.450000e+01
    5764,    1.516667e+01,    5.833333e+00,    2.450000e+01
    5765,    1.400000e+01,    4.666667e+00,    2.450000e+01
    5766,    1.400000e+01,    5.833333e+00,    2.450000e+01
    5767,    1.516667e+01,    4.666667e+00,    3.500000e+01
    5768,    1.516667e+01,    5.833333e+00,    3.500000e+01
    5769,    1.400000e+01,    5.833333e+00,    3.500000e+01
    5770,    1.400000e+01,    4.666667e+00,    3.500000e+01
    5771,    1.166667e+00,    4.666667e+00,    1.400000e+01
    5772,    1.166667e+00,    5.833333e+00,    1.400000e+01
    5773,    1.166667e+00,    4.666667e+00,    1.283333e+01
    5774,    1.166667e+00,    5.833333e+00,    1.283333e+01
    5775,    2.333333e+00,    4.666667e+00,    1.283333e+01
    5776,    2.333333e+00,    5.833333e+00,    1.283333e+01
    5777,    2.333333e+00,    4.666667e+00,    1.400000e+01
    5778,    2.333333e+00,    5.833333e+00,    1.400000e+01
    5779,    0.000000e+00,    4.666667e+00,    1.400000e+01
    5780,    0.000000e+00,    5.833333e+00,    1.400000e+01
    5781,    0.000000e+00,    4.666667e+00,    1.283333e+01
    5782,    0.000000e+00,    5.833333e+00,    1.283333e+01
    5783,    1.050000e+01,    4.666667e+00,    1.283333e+01
    5784,    1.050000e+01,    5.833333e+00,    1.283333e+01
    5785,    1.050000e+01,    5.833333e+00,    1.400000e+01
    5786,    1.050000e+01,    4.666667e+00,    1.400000e+01
    5787,    1.633333e+01,    4.666667e+00,    1.166667e+01
    5788,    1.633333e+01,    5.833333e+00,    1.166667e+01
    5789,    1.400000e+01,    4.666667e+00,    1.166667e+01
    5790,    1.400000e+01,    5.833333e+00,    1.166667e+01
    5791,    1.050000e+01,    4.666667e+00,    1.166667e+01
    5792,    1.050000e+01,    5.833333e+00,    1.166667e+01
    5793,    1.166667e+01,    4.666667e+00,    1.225000e+01
    5794,    1.166667e+01,    5.833333e+00,    1.225000e+01
    5795,    7.000000e+00,    4.666667e+00,    1.166667e+01
    5796,    7.000000e+00,    5.833333e+00,    1.166667e+01
    5797,    3.500000e+00,    4.666667e+00,    1.166667e+01
    5798,    3.500000e+00,    5.833333e+00,    1.166667e+01
    5799,    1.166667e+00,    4.666667e+00,    1.225000e+01
    5800,    1.166667e+00,    5.833333e+00,    1.225000e+01
    5801,    2.333333e+00,    4.666667e+00,    1.225000e+01
    5802,    2.333333e+00,    5.833333e+00,    1.225000e+01
    5803,    0.000000e+00,    4.666667e+00,    1.166667e+01
    5804,    0.000000e+00,    5.833333e+00,    1.166667e+01
    5805,    1.633333e+01,    4.666667e+00,    2.800000e+01
    5806,    1.633333e+01,    5.833333e+00,    2.800000e+01
    5807,    1.633333e+01,    4.666667e+00,    3.150000e+01
    5808,    1.633333e+01,    5.833333e+00,    3.150000e+01
    5809,    1.633333e+01,    5.833333e+00,    1.750000e+01
    5810,    1.633333e+01,    4.666667e+00,    1.750000e+01
    5811,    1.575000e+01,    5.833333e+00,    1.633333e+01
    5812,    1.575000e+01,    4.666667e+00,    1.633333e+01
    5813,    1.633333e+01,    5.833333e+00,    2.100000e+01
    5814,    1.633333e+01,    4.666667e+00,    2.100000e+01
    5815,    1.633333e+01,    4.666667e+00,    2.450000e+01
    5816,    1.633333e+01,    5.833333e+00,    2.450000e+01
    5817,    1.633333e+01,    4.666667e+00,    3.500000e+01
    5818,    1.633333e+01,    5.833333e+00,    3.500000e+01
    5819,    1.283333e+01,    4.666667e+00,    1.225000e+01
    5820,    1.283333e+01,    5.833333e+00,    1.225000e+01
    5821,    1.633333e+01,    4.666667e+00,    1.400000e+01
    5822,    1.633333e+01,    5.833333e+00,    1.400000e+01
    5823,    1.575000e+01,    5.833333e+00,    1.516667e+01
    5824,    1.575000e+01,    4.666667e+00,    1.516667e+01
    5825,    4.666667e+00,    1.516667e+01,    1.633333e+01
    5826,    5.833333e+00,    1.516667e+01,    1.633333e+01
    5827,    4.666667e+00,    1.400000e+01,    1.633333e+01
    5828,    5.833333e+00,    1.400000e+01,    1.633333e+01
    5829,    4.666667e+00,    1.400000e+01,    1.516667e+01
    5830,    5.833333e+00,    1.400000e+01,    1.516667e+01
    5831,    4.666667e+00,    1.516667e+01,    1.516667e+01
    5832,    5.833333e+00,    1.516667e+01,    1.516667e+01
    5833,    4.666667e+00,    1.400000e+01,    1.283333e+01
    5834,    5.833333e+00,    1.400000e+01,    1.283333e+01
    5835,    5.833333e+00,    1.516667e+01,    1.283333e+01
    5836,    4.666667e+00,    1.516667e+01,    1.283333e+01
    5837,    5.833333e+00,    1.516667e+01,    1.400000e+01
    5838,    4.666667e+00,    1.516667e+01,    1.400000e+01
    5839,    4.666667e+00,    1.400000e+01,    1.400000e+01
    5840,    5.833333e+00,    1.400000e+01,    1.400000e+01
    5841,    4.666667e+00,    1.283333e+01,    1.283333e+01
    5842,    5.833333e+00,    1.283333e+01,    1.283333e+01
    5843,    4.666667e+00,    1.283333e+01,    1.400000e+01
    5844,    5.833333e+00,    1.283333e+01,    1.400000e+01
    5845,    4.666667e+00,    1.166667e+01,    1.400000e+01
    5846,    5.833333e+00,    1.166667e+01,    1.400000e+01
    5847,    4.666667e+00,    1.166667e+01,    1.283333e+01
    5848,    5.833333e+00,    1.166667e+01,    1.283333e+01
    5849,    4.666667e+00,    1.050000e+01,    1.283333e+01
    5850,    5.833333e+00,    1.050000e+01,    1.283333e+01
    5851,    5.833333e+00,    1.050000e+01,    1.400000e+01
    5852,    4.666667e+00,    1.050000e+01,    1.400000e+01
    5853,    4.666667e+00,    9.333333e+00,    1.400000e+01
    5854,    5.833333e+00,    9.333333e+00,    1.400000e+01
    5855,    4.666667e+00,    9.333333e+00,    1.283333e+01
    5856,    5.833333e+00,    9.333333e+00,    1.283333e+01
    5857,    4.666667e+00,    8.166667e+00,    1.283333e+01
    5858,    5.833333e+00,    8.166667e+00,    1.283333e+01
    5859,    4.666667e+00,    8.166667e+00,    1.400000e+01
    5860,    5.833333e+00,    8.166667e+00,    1.400000e+01
    5861,    5.833333e+00,    7.000000e+00,    1.400000e+01
    5862,    4.666667e+00,    7.000000e+00,    1.400000e+01
    5863,    4.666667e+00,    7.000000e+00,    1.283333e+01
    5864,    5.833333e+00,    7.000000e+00,    1.283333e+01
    5865,    4.666667e+00,    5.833333e+00,    1.283333e+01
    5866,    5.833333e+00,    5.833333e+00,    1.283333e+01
    5867,    4.666667e+00,    5.833333e+00,    1.400000e+01
    5868,    5.833333e+00,    5.833333e+00,    1.400000e+01
    5869,    4.666667e+00,    4.666667e+00,    1.400000e+01
    5870,    5.833333e+00,    4.666667e+00,    1.400000e+01
    5871,    4.666667e+00,    4.666667e+00,    1.283333e+01
    5872,    5.833333e+00,    4.666667e+00,    1.283333e+01
    5873,    4.666667e+00,    3.500000e+00,    1.283333e+01
    5874,    5.833333e+00,    3.500000e+00,    1.283333e+01
    5875,    5.833333e+00,    3.500000e+00,    1.400000e+01
    5876,    4.666667e+00,    3.500000e+00,    1.400000e+01
    5877,    4.666667e+00,    2.333333e+00,    1.400000e+01
    5878,    5.833333e+00,    2.333333e+00,    1.400000e+01
    5879,    4.666667e+00,    2.333333e+00,    1.283333e+01
    5880,    5.833333e+00,    2.333333e+00,    1.283333e+01
    5881,    4.666667e+00,    1.516667e+01,    1.750000e+01
    5882,    5.833333e+00,    1.516667e+01,    1.750000e+01
    5883,    5.833333e+00,    1.400000e+01,    1.750000e+01
    5884,    4.666667e+00,    1.400000e+01,    1.750000e+01
    5885,    5.833333e+00,    1.516667e+01,    2.100000e+01
    5886,    4.666667e+00,    1.516667e+01,    2.100000e+01
    5887,    5.833333e+00,    1.400000e+01,    2.100000e+01
    5888,    4.666667e+00,    1.400000e+01,    2.100000e+01
    5889,    5.833333e+00,    1.516667e+01,    2.450000e+01
    5890,    4.666667e+00,    1.516667e+01,    2.450000e+01
    5891,    5.833333e+00,    1.400000e+01,    2.450000e+01
    5892,    4.666667e+00,    1.400000e+01,    2.450000e+01
    5893,    5.833333e+00,    1.400000e+01,    3.150000e+01
    5894,    4.666667e+00,    1.400000e+01,    3.150000e+01
    5895,    5.833333e+00,    1.516667e+01,    3.150000e+01
    5896,    4.666667e+00,    1.516667e+01,    3.150000e+01
    5897,    5.833333e+00,    1.516667e+01,    3.500000e+01
    5898,    4.666667e+00,    1.516667e+01,    3.500000e+01
    5899,    4.666667e+00,    1.400000e+01,    3.500000e+01
    5900,    5.833333e+00,    1.400000e+01,    3.500000e+01
    5901,    5.833333e+00,    1.400000e+01,    2.800000e+01
    5902,    4.666667e+00,    1.400000e+01,    2.800000e+01
    5903,    5.833333e+00,    1.516667e+01,    2.800000e+01
    5904,    4.666667e+00,    1.516667e+01,    2.800000e+01
    5905,    4.666667e+00,    1.166667e+00,    1.283333e+01
    5906,    5.833333e+00,    1.166667e+00,    1.283333e+01
    5907,    4.666667e+00,    1.166667e+00,    1.400000e+01
    5908,    5.833333e+00,    1.166667e+00,    1.400000e+01
    5909,    5.833333e+00,    0.000000e+00,    1.400000e+01
    5910,    4.666667e+00,    0.000000e+00,    1.400000e+01
    5911,    4.666667e+00,    0.000000e+00,    1.283333e+01
    5912,    5.833333e+00,    0.000000e+00,    1.283333e+01
    5913,    4.666667e+00,    1.283333e+01,    1.225000e+01
    5914,    5.833333e+00,    1.283333e+01,    1.225000e+01
    5915,    4.666667e+00,    1.166667e+01,    1.225000e+01
    5916,    5.833333e+00,    1.166667e+01,    1.225000e+01
    5917,    4.666667e+00,    1.050000e+01,    1.166667e+01
    5918,    5.833333e+00,    1.050000e+01,    1.166667e+01
    5919,    4.666667e+00,    9.333333e+00,    1.225000e+01
    5920,    5.833333e+00,    9.333333e+00,    1.225000e+01
    5921,    4.666667e+00,    8.166667e+00,    1.225000e+01
    5922,    5.833333e+00,    8.166667e+00,    1.225000e+01
    5923,    4.666667e+00,    7.000000e+00,    1.166667e+01
    5924,    5.833333e+00,    7.000000e+00,    1.166667e+01
    5925,    4.666667e+00,    5.833333e+00,    1.225000e+01
    5926,    5.833333e+00,    5.833333e+00,    1.225000e+01
    5927,    4.666667e+00,    4.666667e+00,    1.225000e+01
    5928,    5.833333e+00,    4.666667e+00,    1.225000e+01
    5929,    4.666667e+00,    3.500000e+00,    1.166667e+01
    5930,    5.833333e+00,    3.500000e+00,    1.166667e+01
    5931,    4.666667e+00,    2.333333e+00,    1.225000e+01
    5932,    5.833333e+00,    2.333333e+00,    1.225000e+01
    5933,    4.666667e+00,    1.166667e+00,    1.225000e+01
    5934,    5.833333e+00,    1.166667e+00,    1.225000e+01
    5935,    4.666667e+00,    0.000000e+00,    1.166667e+01
    5936,    5.833333e+00,    0.000000e+00,    1.166667e+01
    5937,    5.833333e+00,    1.633333e+01,    2.100000e+01
    5938,    4.666667e+00,    1.633333e+01,    2.100000e+01
    5939,    5.833333e+00,    1.633333e+01,    2.450000e+01
    5940,    4.666667e+00,    1.633333e+01,    2.450000e+01
    5941,    5.833333e+00,    1.633333e+01,    3.150000e+01
    5942,    4.666667e+00,    1.633333e+01,    3.150000e+01
    5943,    5.833333e+00,    1.633333e+01,    3.500000e+01
    5944,    4.666667e+00,    1.633333e+01,    3.500000e+01
    5945,    5.833333e+00,    1.633333e+01,    2.800000e+01
    5946,    4.666667e+00,    1.633333e+01,    2.800000e+01
    5947,    4.666667e+00,    1.633333e+01,    1.750000e+01
    5948,    5.833333e+00,    1.633333e+01,    1.750000e+01
    5949,    4.666667e+00,    1.575000e+01,    1.633333e+01
    5950,    5.833333e+00,    1.575000e+01,    1.633333e+01
    5951,    4.666667e+00,    1.400000e+01,    1.166667e+01
    5952,    5.833333e+00,    1.400000e+01,    1.166667e+01
    5953,    4.666667e+00,    1.633333e+01,    1.166667e+01
    5954,    5.833333e+00,    1.633333e+01,    1.166667e+01
    5955,    5.833333e+00,    1.633333e+01,    1.400000e+01
    5956,    4.666667e+00,    1.633333e+01,    1.400000e+01
    5957,    4.666667e+00,    1.575000e+01,    1.516667e+01
    5958,    5.833333e+00,    1.575000e+01,    1.516667e+01
    5959,    8.166667e+00,    1.516667e+01,    1.633333e+01
    5960,    9.333333e+00,    1.516667e+01,    1.633333e+01
    5961,    8.166667e+00,    1.400000e+01,    1.633333e+01
    5962,    9.333333e+00,    1.400000e+01,    1.633333e+01
    5963,    8.166667e+00,    1.400000e+01,    1.516667e+01
    5964,    9.333333e+00,    1.400000e+01,    1.516667e+01
    5965,    8.166667e+00,    1.516667e+01,    1.516667e+01
    5966,    9.333333e+00,    1.516667e+01,    1.516667e+01
    5967,    8.166667e+00,    1.400000e+01,    1.283333e+01
    5968,    9.333333e+00,    1.400000e+01,    1.283333e+01
    5969,    9.333333e+00,    1.516667e+01,    1.283333e+01
    5970,    8.166667e+00,    1.516667e+01,    1.283333e+01
    5971,    9.333333e+00,    1.516667e+01,    1.400000e+01
    5972,    8.166667e+00,    1.516667e+01,    1.400000e+01
    5973,    8.166667e+00,    1.400000e+01,    1.400000e+01
    5974,    9.333333e+00,    1.400000e+01,    1.400000e+01
    5975,    8.166667e+00,    1.283333e+01,    1.283333e+01
    5976,    9.333333e+00,    1.283333e+01,    1.283333e+01
    5977,    8.166667e+00,    1.283333e+01,    1.400000e+01
    5978,    9.333333e+00,    1.283333e+01,    1.400000e+01
    5979,    8.166667e+00,    1.166667e+01,    1.400000e+01
    5980,    9.333333e+00,    1.166667e+01,    1.400000e+01
    5981,    8.166667e+00,    1.166667e+01,    1.283333e+01
    5982,    9.333333e+00,    1.166667e+01,    1.283333e+01
    5983,    8.166667e+00,    1.050000e+01,    1.283333e+01
    5984,    9.333333e+00,    1.050000e+01,    1.283333e+01
    5985,    9.333333e+00,    1.050000e+01,    1.400000e+01
    5986,    8.166667e+00,    1.050000e+01,    1.400000e+01
    5987,    8.166667e+00,    9.333333e+00,    1.400000e+01
    5988,    9.333333e+00,    9.333333e+00,    1.400000e+01
    5989,    8.166667e+00,    9.333333e+00,    1.283333e+01
    5990,    9.333333e+00,    9.333333e+00,    1.283333e+01
    5991,    8.166667e+00,    8.166667e+00,    1.283333e+01
    5992,    9.333333e+00,    8.166667e+00,    1.283333e+01
    5993,    8.166667e+00,    8.166667e+00,    1.400000e+01
    5994,    9.333333e+00,    8.166667e+00,    1.400000e+01
    5995,    9.333333e+00,    7.000000e+00,    1.400000e+01
    5996,    8.166667e+00,    7.000000e+00,    1.400000e+01
    5997,    8.166667e+00,    7.000000e+00,    1.283333e+01
    5998,    9.333333e+00,    7.000000e+00,    1.283333e+01
    5999,    8.166667e+00,    5.833333e+00,    1.283333e+01
    6000,    9.333333e+00,    5.833333e+00,    1.283333e+01
    6001,    8.166667e+00,    5.833333e+00,    1.400000e+01
    6002,    9.333333e+00,    5.833333e+00,    1.400000e+01
    6003,    8.166667e+00,    4.666667e+00,    1.400000e+01
    6004,    9.333333e+00,    4.666667e+00,    1.400000e+01
    6005,    8.166667e+00,    4.666667e+00,    1.283333e+01
    6006,    9.333333e+00,    4.666667e+00,    1.283333e+01
    6007,    8.166667e+00,    3.500000e+00,    1.283333e+01
    6008,    9.333333e+00,    3.500000e+00,    1.283333e+01
    6009,    9.333333e+00,    3.500000e+00,    1.400000e+01
    6010,    8.166667e+00,    3.500000e+00,    1.400000e+01
    6011,    8.166667e+00,    2.333333e+00,    1.400000e+01
    6012,    9.333333e+00,    2.333333e+00,    1.400000e+01
    6013,    8.166667e+00,    2.333333e+00,    1.283333e+01
    6014,    9.333333e+00,    2.333333e+00,    1.283333e+01
    6015,    8.166667e+00,    1.516667e+01,    1.750000e+01
    6016,    9.333333e+00,    1.516667e+01,    1.750000e+01
    6017,    9.333333e+00,    1.400000e+01,    1.750000e+01
    6018,    8.166667e+00,    1.400000e+01,    1.750000e+01
    6019,    9.333333e+00,    1.516667e+01,    2.100000e+01
    6020,    8.166667e+00,    1.516667e+01,    2.100000e+01
    6021,    9.333333e+00,    1.400000e+01,    2.100000e+01
    6022,    8.166667e+00,    1.400000e+01,    2.100000e+01
    6023,    9.333333e+00,    1.516667e+01,    2.450000e+01
    6024,    8.166667e+00,    1.516667e+01,    2.450000e+01
    6025,    9.333333e+00,    1.400000e+01,    2.450000e+01
    6026,    8.166667e+00,    1.400000e+01,    2.450000e+01
    6027,    9.333333e+00,    1.400000e+01,    3.150000e+01
    6028,    8.166667e+00,    1.400000e+01,    3.150000e+01
    6029,    9.333333e+00,    1.516667e+01,    3.150000e+01
    6030,    8.166667e+00,    1.516667e+01,    3.150000e+01
    6031,    9.333333e+00,    1.516667e+01,    3.500000e+01
    6032,    8.166667e+00,    1.516667e+01,    3.500000e+01
    6033,    8.166667e+00,    1.400000e+01,    3.500000e+01
    6034,    9.333333e+00,    1.400000e+01,    3.500000e+01
    6035,    9.333333e+00,    1.400000e+01,    2.800000e+01
    6036,    8.166667e+00,    1.400000e+01,    2.800000e+01
    6037,    9.333333e+00,    1.516667e+01,    2.800000e+01
    6038,    8.166667e+00,    1.516667e+01,    2.800000e+01
    6039,    8.166667e+00,    1.166667e+00,    1.283333e+01
    6040,    9.333333e+00,    1.166667e+00,    1.283333e+01
    6041,    8.166667e+00,    1.166667e+00,    1.400000e+01
    6042,    9.333333e+00,    1.166667e+00,    1.400000e+01
    6043,    9.333333e+00,    0.000000e+00,    1.400000e+01
    6044,    8.166667e+00,    0.000000e+00,    1.400000e+01
    6045,    8.166667e+00,    0.000000e+00,    1.283333e+01
    6046,    9.333333e+00,    0.000000e+00,    1.283333e+01
    6047,    8.166667e+00,    1.283333e+01,    1.225000e+01
    6048,    9.333333e+00,    1.283333e+01,    1.225000e+01
    6049,    8.166667e+00,    1.166667e+01,    1.225000e+01
    6050,    9.333333e+00,    1.166667e+01,    1.225000e+01
    6051,    8.166667e+00,    1.050000e+01,    1.166667e+01
    6052,    9.333333e+00,    1.050000e+01,    1.166667e+01
    6053,    8.166667e+00,    9.333333e+00,    1.225000e+01
    6054,    9.333333e+00,    9.333333e+00,    1.225000e+01
    6055,    8.166667e+00,    8.166667e+00,    1.225000e+01
    6056,    9.333333e+00,    8.166667e+00,    1.225000e+01
    6057,    8.166667e+00,    7.000000e+00,    1.166667e+01
    6058,    9.333333e+00,    7.000000e+00,    1.166667e+01
    6059,    8.166667e+00,    5.833333e+00,    1.225000e+01
    6060,    9.333333e+00,    5.833333e+00,    1.225000e+01
    6061,    8.166667e+00,    4.666667e+00,    1.225000e+01
    6062,    9.333333e+00,    4.666667e+00,    1.225000e+01
    6063,    8.166667e+00,    3.500000e+00,    1.166667e+01
    6064,    9.333333e+00,    3.500000e+00,    1.166667e+01
    6065,    8.166667e+00,    2.333333e+00,    1.225000e+01
    6066,    9.333333e+00,    2.333333e+00,    1.225000e+01
    6067,    8.166667e+00,    1.166667e+00,    1.225000e+01
    6068,    9.333333e+00,    1.166667e+00,    1.225000e+01
    6069,    8.166667e+00,    0.000000e+00,    1.166667e+01
    6070,    9.333333e+00,    0.000000e+00,    1.166667e+01
    6071,    9.333333e+00,    1.633333e+01,    2.100000e+01
    6072,    8.166667e+00,    1.633333e+01,    2.100000e+01
    6073,    9.333333e+00,    1.633333e+01,    2.450000e+01
    6074,    8.166667e+00,    1.633333e+01,    2.450000e+01
    6075,    9.333333e+00,    1.633333e+01,    3.150000e+01
    6076,    8.166667e+00,    1.633333e+01,    3.150000e+01
    6077,    9.333333e+00,    1.633333e+01,    3.500000e+01
    6078,    8.166667e+00,    1.633333e+01,    3.500000e+01
    6079,    9.333333e+00,    1.633333e+01,    2.800000e+01
    6080,    8.166667e+00,    1.633333e+01,    2.800000e+01
    6081,    8.166667e+00,    1.633333e+01,    1.750000e+01
    6082,    9.333333e+00,    1.633333e+01,    1.750000e+01
    6083,    8.166667e+00,    1.575000e+01,    1.633333e+01
    6084,    9.333333e+00,    1.575000e+01,    1.633333e+01
    6085,    8.166667e+00,    1.400000e+01,    1.166667e+01
    6086,    9.333333e+00,    1.400000e+01,    1.166667e+01
    6087,    8.166667e+00,    1.633333e+01,    1.166667e+01
    6088,    9.333333e+00,    1.633333e+01,    1.166667e+01
    6089,    9.333333e+00,    1.633333e+01,    1.400000e+01
    6090,    8.166667e+00,    1.633333e+01,    1.400000e+01
    6091,    8.166667e+00,    1.575000e+01,    1.516667e+01
    6092,    9.333333e+00,    1.575000e+01,    1.516667e+01
    6093,    1.400000e+01,    1.400000e+01,    3.383333e+01
    6094,    1.400000e+01,    1.400000e+01,    3.266667e+01
    6095,    1.516667e+01,    1.400000e+01,    3.266667e+01
    6096,    1.516667e+01,    1.400000e+01,    3.383333e+01
    6097,    1.516667e+01,    1.283333e+01,    3.266667e+01
    6098,    1.516667e+01,    1.283333e+01,    3.383333e+01
    6099,    1.400000e+01,    1.283333e+01,    3.266667e+01
    6100,    1.400000e+01,    1.283333e+01,    3.383333e+01
    6101,    1.283333e+01,    1.400000e+01,    3.266667e+01
    6102,    1.283333e+01,    1.400000e+01,    3.383333e+01
    6103,    1.283333e+01,    1.516667e+01,    3.266667e+01
    6104,    1.283333e+01,    1.516667e+01,    3.383333e+01
    6105,    1.400000e+01,    1.516667e+01,    3.266667e+01
    6106,    1.400000e+01,    1.516667e+01,    3.383333e+01
    6107,    1.166667e+01,    1.400000e+01,    3.266667e+01
    6108,    1.166667e+01,    1.400000e+01,    3.383333e+01
    6109,    1.166667e+01,    1.516667e+01,    3.266667e+01
    6110,    1.166667e+01,    1.516667e+01,    3.383333e+01
    6111,    1.400000e+01,    2.333333e+00,    3.266667e+01
    6112,    1.400000e+01,    2.333333e+00,    3.383333e+01
    6113,    1.516667e+01,    2.333333e+00,    3.266667e+01
    6114,    1.516667e+01,    2.333333e+00,    3.383333e+01
    6115,    1.516667e+01,    1.166667e+00,    3.266667e+01
    6116,    1.516667e+01,    1.166667e+00,    3.383333e+01
    6117,    1.400000e+01,    1.166667e+00,    3.266667e+01
    6118,    1.400000e+01,    1.166667e+00,    3.383333e+01
    6119,    1.516667e+01,    0.000000e+00,    3.266667e+01
    6120,    1.516667e+01,    0.000000e+00,    3.383333e+01
    6121,    1.400000e+01,    0.000000e+00,    3.383333e+01
    6122,    1.400000e+01,    0.000000e+00,    3.266667e+01
    6123,    1.516667e+01,    1.166667e+01,    3.266667e+01
    6124,    1.516667e+01,    1.166667e+01,    3.383333e+01
    6125,    1.400000e+01,    1.166667e+01,    3.266667e+01
    6126,    1.400000e+01,    1.166667e+01,    3.383333e+01
    6127,    1.516667e+01,    1.050000e+01,    3.266667e+01
    6128,    1.516667e+01,    1.050000e+01,    3.383333e+01
    6129,    1.400000e+01,    1.050000e+01,    3.383333e+01
    6130,    1.400000e+01,    1.050000e+01,    3.266667e+01
    6131,    1.516667e+01,    9.333333e+00,    3.266667e+01
    6132,    1.516667e+01,    9.333333e+00,    3.383333e+01
    6133,    1.400000e+01,    9.333333e+00,    3.266667e+01
    6134,    1.400000e+01,    9.333333e+00,    3.383333e+01
    6135,    1.516667e+01,    8.166667e+00,    3.266667e+01
    6136,    1.516667e+01,    8.166667e+00,    3.383333e+01
    6137,    1.400000e+01,    8.166667e+00,    3.266667e+01
    6138,    1.400000e+01,    8.166667e+00,    3.383333e+01
    6139,    1.516667e+01,    7.000000e+00,    3.266667e+01
    6140,    1.516667e+01,    7.000000e+00,    3.383333e+01
    6141,    1.400000e+01,    7.000000e+00,    3.383333e+01
    6142,    1.400000e+01,    7.000000e+00,    3.266667e+01
    6143,    1.516667e+01,    5.833333e+00,    3.266667e+01
    6144,    1.516667e+01,    5.833333e+00,    3.383333e+01
    6145,    1.400000e+01,    5.833333e+00,    3.266667e+01
    6146,    1.400000e+01,    5.833333e+00,    3.383333e+01
    6147,    1.516667e+01,    4.666667e+00,    3.266667e+01
    6148,    1.516667e+01,    4.666667e+00,    3.383333e+01
    6149,    1.400000e+01,    4.666667e+00,    3.266667e+01
    6150,    1.400000e+01,    4.666667e+00,    3.383333e+01
    6151,    1.516667e+01,    3.500000e+00,    3.266667e+01
    6152,    1.516667e+01,    3.500000e+00,    3.383333e+01
    6153,    1.400000e+01,    3.500000e+00,    3.383333e+01
    6154,    1.400000e+01,    3.500000e+00,    3.266667e+01
    6155,    0.000000e+00,    1.400000e+01,    3.266667e+01
    6156,    0.000000e+00,    1.400000e+01,    3.383333e+01
    6157,    0.000000e+00,    1.516667e+01,    3.383333e+01
    6158,    0.000000e+00,    1.516667e+01,    3.266667e+01
    6159,    1.166667e+00,    1.516667e+01,    3.266667e+01
    6160,    1.166667e+00,    1.516667e+01,    3.383333e+01
    6161,    1.166667e+00,    1.400000e+01,    3.266667e+01
    6162,    1.166667e+00,    1.400000e+01,    3.383333e+01
    6163,    1.050000e+01,    1.400000e+01,    3.383333e+01
    6164,    1.050000e+01,    1.400000e+01,    3.266667e+01
    6165,    1.050000e+01,    1.516667e+01,    3.266667e+01
    6166,    1.050000e+01,    1.516667e+01,    3.383333e+01
    6167,    9.333333e+00,    1.400000e+01,    3.266667e+01
    6168,    9.333333e+00,    1.400000e+01,    3.383333e+01
    6169,    9.333333e+00,    1.516667e+01,    3.266667e+01
    6170,    9.333333e+00,    1.516667e+01,    3.383333e+01
    6171,    8.166667e+00,    1.400000e+01,    3.266667e+01
    6172,    8.166667e+00,    1.400000e+01,    3.383333e+01
    6173,    8.166667e+00,    1.516667e+01,    3.266667e+01
    6174,    8.166667e+00,    1.516667e+01,    3.383333e+01
    6175,    7.000000e+00,    1.400000e+01,    3.383333e+01
    6176,    7.000000e+00,    1.400000e+01,    3.266667e+01
    6177,    7.000000e+00,    1.516667e+01,    3.266667e+01
    6178,    7.000000e+00,    1.516667e+01,    3.383333e+01
    6179,    5.833333e+00,    1.400000e+01,    3.266667e+01
    6180,    5.833333e+00,    1.400000e+01,    3.383333e+01
    6181,    5.833333e+00,    1.516667e+01,    3.266667e+01
    6182,    5.833333e+00,    1.516667e+01,    3.383333e+01
    6183,    4.666667e+00,    1.400000e+01,    3.266667e+01
    6184,    4.666667e+00,    1.400000e+01,    3.383333e+01
    6185,    4.666667e+00,    1.516667e+01,    3.266667e+01
    6186,    4.666667e+00,    1.516667e+01,    3.383333e+01
    6187,    3.500000e+00,    1.400000e+01,    3.383333e+01
    6188,    3.500000e+00,    1.400000e+01,    3.266667e+01
    6189,    3.500000e+00,    1.516667e+01,    3.266667e+01
    6190,    3.500000e+00,    1.516667e+01,    3.383333e+01
    6191,    2.333333e+00,    1.400000e+01,    3.266667e+01
    6192,    2.333333e+00,    1.400000e+01,    3.383333e+01
    6193,    2.333333e+00,    1.516667e+01,    3.266667e+01
    6194,    2.333333e+00,    1.516667e+01,    3.383333e+01
    6195,    1.516667e+01,    1.516667e+01,    3.383333e+01
    6196,    1.516667e+01,    1.516667e+01,    3.266667e+01
    6197,    1.283333e+01,    1.575000e+01,    3.266667e+01
    6198,    1.283333e+01,    1.575000e+01,    3.383333e+01
    6199,    1.400000e+01,    1.633333e+01,    3.266667e+01
    6200,    1.400000e+01,    1.633333e+01,    3.383333e+01
    6201,    0.000000e+00,    1.633333e+01,    3.383333e+01
    6202,    0.000000e+00,    1.633333e+01,    3.266667e+01
    6203,    1.166667e+00,    1.575000e+01,    3.383333e+01
    6204,    1.166667e+00,    1.575000e+01,    3.266667e+01
    6205,    2.333333e+00,    1.575000e+01,    3.266667e+01
    6206,    2.333333e+00,    1.575000e+01,    3.383333e+01
    6207,    3.500000e+00,    1.633333e+01,    3.266667e+01
    6208,    3.500000e+00,    1.633333e+01,    3.383333e+01
    6209,    1.575000e+01,    2.333333e+00,    3.266667e+01
    6210,    1.575000e+01,    2.333333e+00,    3.383333e+01
    6211,    1.575000e+01,    1.166667e+00,    3.266667e+01
    6212,    1.575000e+01,    1.166667e+00,    3.383333e+01
    6213,    1.575000e+01,    1.283333e+01,    3.266667e+01
    6214,    1.575000e+01,    1.283333e+01,    3.383333e+01
    6215,    1.575000e+01,    1.166667e+01,    3.266667e+01
    6216,    1.575000e+01,    1.166667e+01,    3.383333e+01
    6217,    1.633333e+01,    0.000000e+00,    3.266667e+01
    6218,    1.633333e+01,    0.000000e+00,    3.383333e+01
    6219,    1.633333e+01,    3.500000e+00,    3.266667e+01
    6220,    1.633333e+01,    3.500000e+00,    3.383333e+01
    6221,    1.575000e+01,    5.833333e+00,    3.266667e+01
    6222,    1.575000e+01,    5.833333e+00,    3.383333e+01
    6223,    1.575000e+01,    4.666667e+00,    3.266667e+01
    6224,    1.575000e+01,    4.666667e+00,    3.383333e+01
    6225,    1.633333e+01,    7.000000e+00,    3.266667e+01
    6226,    1.633333e+01,    7.000000e+00,    3.383333e+01
    6227,    1.575000e+01,    9.333333e+00,    3.266667e+01
    6228,    1.575000e+01,    9.333333e+00,    3.383333e+01
    6229,    1.575000e+01,    8.166667e+00,    3.266667e+01
    6230,    1.575000e+01,    8.166667e+00,    3.383333e+01
    6231,    1.633333e+01,    1.050000e+01,    3.266667e+01
    6232,    1.633333e+01,    1.050000e+01,    3.383333e+01
    6233,    4.666667e+00,    1.575000e+01,    3.266667e+01
    6234,    4.666667e+00,    1.575000e+01,    3.383333e+01
    6235,    5.833333e+00,    1.575000e+01,    3.266667e+01
    6236,    5.833333e+00,    1.575000e+01,    3.383333e+01
    6237,    7.000000e+00,    1.633333e+01,    3.266667e+01
    6238,    7.000000e+00,    1.633333e+01,    3.383333e+01
    6239,    8.166667e+00,    1.575000e+01,    3.266667e+01
    6240,    8.166667e+00,    1.575000e+01,    3.383333e+01
    6241,    9.333333e+00,    1.575000e+01,    3.266667e+01
    6242,    9.333333e+00,    1.575000e+01,    3.383333e+01
    6243,    1.050000e+01,    1.633333e+01,    3.266667e+01
    6244,    1.050000e+01,    1.633333e+01,    3.383333e+01
    6245,    1.166667e+01,    1.575000e+01,    3.266667e+01
    6246,    1.166667e+01,    1.575000e+01,    3.383333e+01
    6247,    1.633333e+01,    1.633333e+01,    3.383333e+01
    6248,    1.633333e+01,    1.633333e+01,    3.266667e+01
    6249,    1.633333e+01,    1.400000e+01,    3.266667e+01
    6250,    1.633333e+01,    1.400000e+01,    3.383333e+01
    6251,    1.166667e+01,    1.400000e+01,    2.916667e+01
    6252,    1.166667e+01,    1.400000e+01,    3.033333e+01
    6253,    1.166667e+01,    1.516667e+01,    2.916667e+01
    6254,    1.166667e+01,    1.516667e+01,    3.033333e+01
    6255,    1.283333e+01,    1.516667e+01,    2.916667e+01
    6256,    1.283333e+01,    1.516667e+01,    3.033333e+01
    6257,    1.283333e+01,    1.400000e+01,    2.916667e+01
    6258,    1.283333e+01,    1.400000e+01,    3.033333e+01
    6259,    1.516667e+01,    1.400000e+01,    3.033333e+01
    6260,    1.516667e+01,    1.400000e+01,    2.916667e+01
    6261,    1.400000e+01,    1.400000e+01,    3.033333e+01
    6262,    1.400000e+01,    1.400000e+01,    2.916667e+01
    6263,    1.400000e+01,    1.516667e+01,    3.033333e+01
    6264,    1.400000e+01,    1.516667e+01,    2.916667e+01
    6265,    1.516667e+01,    1.516667e+01,    3.033333e+01
    6266,    1.516667e+01,    1.516667e+01,    2.916667e+01
    6267,    1.516667e+01,    1.283333e+01,    2.916667e+01
    6268,    1.516667e+01,    1.283333e+01,    3.033333e+01
    6269,    1.400000e+01,    1.283333e+01,    2.916667e+01
    6270,    1.400000e+01,    1.283333e+01,    3.033333e+01
    6271,    5.833333e+00,    1.400000e+01,    2.916667e+01
    6272,    5.833333e+00,    1.400000e+01,    3.033333e+01
    6273,    5.833333e+00,    1.516667e+01,    2.916667e+01
    6274,    5.833333e+00,    1.516667e+01,    3.033333e+01
    6275,    7.000000e+00,    1.516667e+01,    2.916667e+01
    6276,    7.000000e+00,    1.516667e+01,    3.033333e+01
    6277,    7.000000e+00,    1.400000e+01,    3.033333e+01
    6278,    7.000000e+00,    1.400000e+01,    2.916667e+01
    6279,    4.666667e+00,    1.400000e+01,    2.916667e+01
    6280,    4.666667e+00,    1.400000e+01,    3.033333e+01
    6281,    4.666667e+00,    1.516667e+01,    2.916667e+01
    6282,    4.666667e+00,    1.516667e+01,    3.033333e+01
    6283,    1.516667e+01,    1.166667e+01,    2.916667e+01
    6284,    1.516667e+01,    1.166667e+01,    3.033333e+01
    6285,    1.400000e+01,    1.166667e+01,    2.916667e+01
    6286,    1.400000e+01,    1.166667e+01,    3.033333e+01
    6287,    1.400000e+01,    9.333333e+00,    2.916667e+01
    6288,    1.400000e+01,    9.333333e+00,    3.033333e+01
    6289,    1.516667e+01,    9.333333e+00,    2.916667e+01
    6290,    1.516667e+01,    9.333333e+00,    3.033333e+01
    6291,    1.516667e+01,    8.166667e+00,    2.916667e+01
    6292,    1.516667e+01,    8.166667e+00,    3.033333e+01
    6293,    1.400000e+01,    8.166667e+00,    2.916667e+01
    6294,    1.400000e+01,    8.166667e+00,    3.033333e+01
    6295,    1.516667e+01,    7.000000e+00,    2.916667e+01
    6296,    1.516667e+01,    7.000000e+00,    3.033333e+01
    6297,    1.400000e+01,    7.000000e+00,    3.033333e+01
    6298,    1.400000e+01,    7.000000e+00,    2.916667e+01
    6299,    1.516667e+01,    5.833333e+00,    2.916667e+01
    6300,    1.516667e+01,    5.833333e+00,    3.033333e+01
    6301,    1.400000e+01,    5.833333e+00,    2.916667e+01
    6302,    1.400000e+01,    5.833333e+00,    3.033333e+01
    6303,    1.400000e+01,    3.500000e+00,    3.033333e+01
    6304,    1.400000e+01,    3.500000e+00,    2.916667e+01
    6305,    1.516667e+01,    3.500000e+00,    2.916667e+01
    6306,    1.516667e+01,    3.500000e+00,    3.033333e+01
    6307,    1.516667e+01,    2.333333e+00,    2.916667e+01
    6308,    1.516667e+01,    2.333333e+00,    3.033333e+01
    6309,    1.400000e+01,    2.333333e+00,    2.916667e+01
    6310,    1.400000e+01,    2.333333e+00,    3.033333e+01
    6311,    1.516667e+01,    1.166667e+00,    2.916667e+01
    6312,    1.516667e+01,    1.166667e+00,    3.033333e+01
    6313,    1.400000e+01,    1.166667e+00,    2.916667e+01
    6314,    1.400000e+01,    1.166667e+00,    3.033333e+01
    6315,    1.516667e+01,    0.000000e+00,    2.916667e+01
    6316,    1.516667e+01,    0.000000e+00,    3.033333e+01
    6317,    1.400000e+01,    0.000000e+00,    3.033333e+01
    6318,    1.400000e+01,    0.000000e+00,    2.916667e+01
    6319,    1.516667e+01,    4.666667e+00,    2.916667e+01
    6320,    1.516667e+01,    4.666667e+00,    3.033333e+01
    6321,    1.400000e+01,    4.666667e+00,    2.916667e+01
    6322,    1.400000e+01,    4.666667e+00,    3.033333e+01
    6323,    1.400000e+01,    1.050000e+01,    3.033333e+01
    6324,    1.400000e+01,    1.050000e+01,    2.916667e+01
    6325,    1.516667e+01,    1.050000e+01,    2.916667e+01
    6326,    1.516667e+01,    1.050000e+01,    3.033333e+01
    6327,    0.000000e+00,    1.400000e+01,    2.916667e+01
    6328,    0.000000e+00,    1.400000e+01,    3.033333e+01
    6329,    0.000000e+00,    1.516667e+01,    3.033333e+01
    6330,    0.000000e+00,    1.516667e+01,    2.916667e+01
    6331,    1.166667e+00,    1.516667e+01,    2.916667e+01
    6332,    1.166667e+00,    1.516667e+01,    3.033333e+01
    6333,    1.166667e+00,    1.400000e+01,    2.916667e+01
    6334,    1.166667e+00,    1.400000e+01,    3.033333e+01
    6335,    2.333333e+00,    1.516667e+01,    2.916667e+01
    6336,    2.333333e+00,    1.516667e+01,    3.033333e+01
    6337,    2.333333e+00,    1.400000e+01,    2.916667e+01
    6338,    2.333333e+00,    1.400000e+01,    3.033333e+01
    6339,    3.500000e+00,    1.516667e+01,    2.916667e+01
    6340,    3.500000e+00,    1.516667e+01,    3.033333e+01
    6341,    3.500000e+00,    1.400000e+01,    3.033333e+01
    6342,    3.500000e+00,    1.400000e+01,    2.916667e+01
    6343,    8.166667e+00,    1.516667e+01,    2.916667e+01
    6344,    8.166667e+00,    1.516667e+01,    3.033333e+01
    6345,    8.166667e+00,    1.400000e+01,    2.916667e+01
    6346,    8.166667e+00,    1.400000e+01,    3.033333e+01
    6347,    9.333333e+00,    1.516667e+01,    2.916667e+01
    6348,    9.333333e+00,    1.516667e+01,    3.033333e+01
    6349,    9.333333e+00,    1.400000e+01,    2.916667e+01
    6350,    9.333333e+00,    1.400000e+01,    3.033333e+01
    6351,    1.050000e+01,    1.516667e+01,    2.916667e+01
    6352,    1.050000e+01,    1.516667e+01,    3.033333e+01
    6353,    1.050000e+01,    1.400000e+01,    3.033333e+01
    6354,    1.050000e+01,    1.400000e+01,    2.916667e+01
    6355,    1.633333e+01,    1.633333e+01,    3.033333e+01
    6356,    1.633333e+01,    1.633333e+01,    2.916667e+01
    6357,    1.400000e+01,    1.633333e+01,    3.033333e+01
    6358,    1.400000e+01,    1.633333e+01,    2.916667e+01
    6359,    9.333333e+00,    1.575000e+01,    2.916667e+01
    6360,    9.333333e+00,    1.575000e+01,    3.033333e+01
    6361,    1.050000e+01,    1.633333e+01,    2.916667e+01
    6362,    1.050000e+01,    1.633333e+01,    3.033333e+01
    6363,    5.833333e+00,    1.575000e+01,    2.916667e+01
    6364,    5.833333e+00,    1.575000e+01,    3.033333e+01
    6365,    7.000000e+00,    1.633333e+01,    2.916667e+01
    6366,    7.000000e+00,    1.633333e+01,    3.033333e+01
    6367,    2.333333e+00,    1.575000e+01,    2.916667e+01
    6368,    2.333333e+00,    1.575000e+01,    3.033333e+01
    6369,    3.500000e+00,    1.633333e+01,    2.916667e+01
    6370,    3.500000e+00,    1.633333e+01,    3.033333e+01
    6371,    0.000000e+00,    1.633333e+01,    3.033333e+01
    6372,    0.000000e+00,    1.633333e+01,    2.916667e+01
    6373,    1.166667e+00,    1.575000e+01,    3.033333e+01
    6374,    1.166667e+00,    1.575000e+01,    2.916667e+01
    6375,    1.633333e+01,    1.400000e+01,    3.033333e+01
    6376,    1.633333e+01,    1.400000e+01,    2.916667e+01
    6377,    1.575000e+01,    1.283333e+01,    3.033333e+01
    6378,    1.575000e+01,    1.283333e+01,    2.916667e+01
    6379,    1.575000e+01,    1.166667e+01,    2.916667e+01
    6380,    1.575000e+01,    1.166667e+01,    3.033333e+01
    6381,    1.575000e+01,    9.333333e+00,    2.916667e+01
    6382,    1.575000e+01,    9.333333e+00,    3.033333e+01
    6383,    1.575000e+01,    8.166667e+00,    2.916667e+01
    6384,    1.575000e+01,    8.166667e+00,    3.033333e+01
    6385,    1.633333e+01,    7.000000e+00,    2.916667e+01
    6386,    1.633333e+01,    7.000000e+00,    3.033333e+01
    6387,    1.633333e+01,    3.500000e+00,    2.916667e+01
    6388,    1.633333e+01,    3.500000e+00,    3.033333e+01
    6389,    1.575000e+01,    2.333333e+00,    2.916667e+01
    6390,    1.575000e+01,    2.333333e+00,    3.033333e+01
    6391,    1.575000e+01,    1.166667e+00,    2.916667e+01
    6392,    1.575000e+01,    1.166667e+00,    3.033333e+01
    6393,    1.633333e+01,    0.000000e+00,    2.916667e+01
    6394,    1.633333e+01,    0.000000e+00,    3.033333e+01
    6395,    1.575000e+01,    5.833333e+00,    2.916667e+01
    6396,    1.575000e+01,    5.833333e+00,    3.033333e+01
    6397,    1.575000e+01,    4.666667e+00,    2.916667e+01
    6398,    1.575000e+01,    4.666667e+00,    3.033333e+01
    6399,    1.633333e+01,    1.050000e+01,    2.916667e+01
    6400,    1.633333e+01,    1.050000e+01,    3.033333e+01
    6401,    4.666667e+00,    1.575000e+01,    2.916667e+01
    6402,    4.666667e+00,    1.575000e+01,    3.033333e+01
    6403,    8.166667e+00,    1.575000e+01,    2.916667e+01
    6404,    8.166667e+00,    1.575000e+01,    3.033333e+01
    6405,    1.166667e+01,    1.575000e+01,    2.916667e+01
    6406,    1.166667e+01,    1.575000e+01,    3.033333e+01
    6407,    1.283333e+01,    1.575000e+01,    2.916667e+01
    6408,    1.283333e+01,    1.575000e+01,    3.033333e+01
    6409,    1.166667e+01,    1.400000e+01,    2.566667e+01
    6410,    1.166667e+01,    1.400000e+01,    2.683333e+01
    6411,    1.166667e+01,    1.516667e+01,    2.566667e+01
    6412,    1.166667e+01,    1.516667e+01,    2.683333e+01
    6413,    1.283333e+01,    1.516667e+01,    2.566667e+01
    6414,    1.283333e+01,    1.516667e+01,    2.683333e+01
    6415,    1.283333e+01,    1.400000e+01,    2.566667e+01
    6416,    1.283333e+01,    1.400000e+01,    2.683333e+01
    6417,    1.516667e+01,    1.400000e+01,    2.683333e+01
    6418,    1.516667e+01,    1.400000e+01,    2.566667e+01
    6419,    1.400000e+01,    1.400000e+01,    2.683333e+01
    6420,    1.400000e+01,    1.400000e+01,    2.566667e+01
    6421,    1.400000e+01,    1.516667e+01,    2.683333e+01
    6422,    1.400000e+01,    1.516667e+01,    2.566667e+01
    6423,    1.516667e+01,    1.516667e+01,    2.683333e+01
    6424,    1.516667e+01,    1.516667e+01,    2.566667e+01
    6425,    1.516667e+01,    1.283333e+01,    2.566667e+01
    6426,    1.516667e+01,    1.283333e+01,    2.683333e+01
    6427,    1.400000e+01,    1.283333e+01,    2.566667e+01
    6428,    1.400000e+01,    1.283333e+01,    2.683333e+01
    6429,    5.833333e+00,    1.400000e+01,    2.566667e+01
    6430,    5.833333e+00,    1.400000e+01,    2.683333e+01
    6431,    5.833333e+00,    1.516667e+01,    2.566667e+01
    6432,    5.833333e+00,    1.516667e+01,    2.683333e+01
    6433,    7.000000e+00,    1.516667e+01,    2.566667e+01
    6434,    7.000000e+00,    1.516667e+01,    2.683333e+01
    6435,    7.000000e+00,    1.400000e+01,    2.683333e+01
    6436,    7.000000e+00,    1.400000e+01,    2.566667e+01
    6437,    4.666667e+00,    1.400000e+01,    2.566667e+01
    6438,    4.666667e+00,    1.400000e+01,    2.683333e+01
    6439,    4.666667e+00,    1.516667e+01,    2.566667e+01
    6440,    4.666667e+00,    1.516667e+01,    2.683333e+01
    6441,    1.516667e+01,    1.166667e+01,    2.566667e+01
    6442,    1.516667e+01,    1.166667e+01,    2.683333e+01
    6443,    1.400000e+01,    1.166667e+01,    2.566667e+01
    6444,    1.400000e+01,    1.166667e+01,    2.683333e+01
    6445,    1.400000e+01,    9.333333e+00,    2.566667e+01
    6446,    1.400000e+01,    9.333333e+00,    2.683333e+01
    6447,    1.516667e+01,    9.333333e+00,    2.566667e+01
    6448,    1.516667e+01,    9.333333e+00,    2.683333e+01
    6449,    1.516667e+01,    8.166667e+00,    2.566667e+01
    6450,    1.516667e+01,    8.166667e+00,    2.683333e+01
    6451,    1.400000e+01,    8.166667e+00,    2.566667e+01
    6452,    1.400000e+01,    8.166667e+00,    2.683333e+01
    6453,    1.516667e+01,    7.000000e+00,    2.566667e+01
    6454,    1.516667e+01,    7.000000e+00,    2.683333e+01
    6455,    1.400000e+01,    7.000000e+00,    2.683333e+01
    6456,    1.400000e+01,    7.000000e+00,    2.566667e+01
    6457,    1.516667e+01,    5.833333e+00,    2.566667e+01
    6458,    1.516667e+01,    5.833333e+00,    2.683333e+01
    6459,    1.400000e+01,    5.833333e+00,    2.566667e+01
    6460,    1.400000e+01,    5.833333e+00,    2.683333e+01
    6461,    1.400000e+01,    3.500000e+00,    2.683333e+01
    6462,    1.400000e+01,    3.500000e+00,    2.566667e+01
    6463,    1.516667e+01,    3.500000e+00,    2.566667e+01
    6464,    1.516667e+01,    3.500000e+00,    2.683333e+01
    6465,    1.516667e+01,    2.333333e+00,    2.566667e+01
    6466,    1.516667e+01,    2.333333e+00,    2.683333e+01
    6467,    1.400000e+01,    2.333333e+00,    2.566667e+01
    6468,    1.400000e+01,    2.333333e+00,    2.683333e+01
    6469,    1.516667e+01,    1.166667e+00,    2.566667e+01
    6470,    1.516667e+01,    1.166667e+00,    2.683333e+01
    6471,    1.400000e+01,    1.166667e+00,    2.566667e+01
    6472,    1.400000e+01,    1.166667e+00,    2.683333e+01
    6473,    1.516667e+01,    0.000000e+00,    2.566667e+01
    6474,    1.516667e+01,    0.000000e+00,    2.683333e+01
    6475,    1.400000e+01,    0.000000e+00,    2.683333e+01
    6476,    1.400000e+01,    0.000000e+00,    2.566667e+01
    6477,    1.516667e+01,    4.666667e+00,    2.566667e+01
    6478,    1.516667e+01,    4.666667e+00,    2.683333e+01
    6479,    1.400000e+01,    4.666667e+00,    2.566667e+01
    6480,    1.400000e+01,    4.666667e+00,    2.683333e+01
    6481,    1.400000e+01,    1.050000e+01,    2.683333e+01
    6482,    1.400000e+01,    1.050000e+01,    2.566667e+01
    6483,    1.516667e+01,    1.050000e+01,    2.566667e+01
    6484,    1.516667e+01,    1.050000e+01,    2.683333e+01
    6485,    0.000000e+00,    1.400000e+01,    2.566667e+01
    6486,    0.000000e+00,    1.400000e+01,    2.683333e+01
    6487,    0.000000e+00,    1.516667e+01,    2.683333e+01
    6488,    0.000000e+00,    1.516667e+01,    2.566667e+01
    6489,    1.166667e+00,    1.516667e+01,    2.566667e+01
    6490,    1.166667e+00,    1.516667e+01,    2.683333e+01
    6491,    1.166667e+00,    1.400000e+01,    2.566667e+01
    6492,    1.166667e+00,    1.400000e+01,    2.683333e+01
    6493,    2.333333e+00,    1.516667e+01,    2.566667e+01
    6494,    2.333333e+00,    1.516667e+01,    2.683333e+01
    6495,    2.333333e+00,    1.400000e+01,    2.566667e+01
    6496,    2.333333e+00,    1.400000e+01,    2.683333e+01
    6497,    3.500000e+00,    1.516667e+01,    2.566667e+01
    6498,    3.500000e+00,    1.516667e+01,    2.683333e+01
    6499,    3.500000e+00,    1.400000e+01,    2.683333e+01
    6500,    3.500000e+00,    1.400000e+01,    2.566667e+01
    6501,    8.166667e+00,    1.516667e+01,    2.566667e+01
    6502,    8.166667e+00,    1.516667e+01,    2.683333e+01
    6503,    8.166667e+00,    1.400000e+01,    2.566667e+01
    6504,    8.166667e+00,    1.400000e+01,    2.683333e+01
    6505,    9.333333e+00,    1.516667e+01,    2.566667e+01
    6506,    9.333333e+00,    1.516667e+01,    2.683333e+01
    6507,    9.333333e+00,    1.400000e+01,    2.566667e+01
    6508,    9.333333e+00,    1.400000e+01,    2.683333e+01
    6509,    1.050000e+01,    1.516667e+01,    2.566667e+01
    6510,    1.050000e+01,    1.516667e+01,    2.683333e+01
    6511,    1.050000e+01,    1.400000e+01,    2.683333e+01
    6512,    1.050000e+01,    1.400000e+01,    2.566667e+01
    6513,    1.633333e+01,    1.633333e+01,    2.683333e+01
    6514,    1.633333e+01,    1.633333e+01,    2.566667e+01
    6515,    1.400000e+01,    1.633333e+01,    2.683333e+01
    6516,    1.400000e+01,    1.633333e+01,    2.566667e+01
    6517,    9.333333e+00,    1.575000e+01,    2.566667e+01
    6518,    9.333333e+00,    1.575000e+01,    2.683333e+01
    6519,    1.050000e+01,    1.633333e+01,    2.566667e+01
    6520,    1.050000e+01,    1.633333e+01,    2.683333e+01
    6521,    5.833333e+00,    1.575000e+01,    2.566667e+01
    6522,    5.833333e+00,    1.575000e+01,    2.683333e+01
    6523,    7.000000e+00,    1.633333e+01,    2.566667e+01
    6524,    7.000000e+00,    1.633333e+01,    2.683333e+01
    6525,    2.333333e+00,    1.575000e+01,    2.566667e+01
    6526,    2.333333e+00,    1.575000e+01,    2.683333e+01
    6527,    3.500000e+00,    1.633333e+01,    2.566667e+01
    6528,    3.500000e+00,    1.633333e+01,    2.683333e+01
    6529,    0.000000e+00,    1.633333e+01,    2.683333e+01
    6530,    0.000000e+00,    1.633333e+01,    2.566667e+01
    6531,    1.166667e+00,    1.575000e+01,    2.683333e+01
    6532,    1.166667e+00,    1.575000e+01,    2.566667e+01
    6533,    1.633333e+01,    1.400000e+01,    2.683333e+01
    6534,    1.633333e+01,    1.400000e+01,    2.566667e+01
    6535,    1.575000e+01,    1.283333e+01,    2.683333e+01
    6536,    1.575000e+01,    1.283333e+01,    2.566667e+01
    6537,    1.575000e+01,    1.166667e+01,    2.566667e+01
    6538,    1.575000e+01,    1.166667e+01,    2.683333e+01
    6539,    1.575000e+01,    9.333333e+00,    2.566667e+01
    6540,    1.575000e+01,    9.333333e+00,    2.683333e+01
    6541,    1.575000e+01,    8.166667e+00,    2.566667e+01
    6542,    1.575000e+01,    8.166667e+00,    2.683333e+01
    6543,    1.633333e+01,    7.000000e+00,    2.566667e+01
    6544,    1.633333e+01,    7.000000e+00,    2.683333e+01
    6545,    1.633333e+01,    3.500000e+00,    2.566667e+01
    6546,    1.633333e+01,    3.500000e+00,    2.683333e+01
    6547,    1.575000e+01,    2.333333e+00,    2.566667e+01
    6548,    1.575000e+01,    2.333333e+00,    2.683333e+01
    6549,    1.575000e+01,    1.166667e+00,    2.566667e+01
    6550,    1.575000e+01,    1.166667e+00,    2.683333e+01
    6551,    1.633333e+01,    0.000000e+00,    2.566667e+01
    6552,    1.633333e+01,    0.000000e+00,    2.683333e+01
    6553,    1.575000e+01,    5.833333e+00,    2.566667e+01
    6554,    1.575000e+01,    5.833333e+00,    2.683333e+01
    6555,    1.575000e+01,    4.666667e+00,    2.566667e+01
    6556,    1.575000e+01,    4.666667e+00,    2.683333e+01
    6557,    1.633333e+01,    1.050000e+01,    2.566667e+01
    6558,    1.633333e+01,    1.050000e+01,    2.683333e+01
    6559,    4.666667e+00,    1.575000e+01,    2.566667e+01
    6560,    4.666667e+00,    1.575000e+01,    2.683333e+01
    6561,    8.166667e+00,    1.575000e+01,    2.566667e+01
    6562,    8.166667e+00,    1.575000e+01,    2.683333e+01
    6563,    1.166667e+01,    1.575000e+01,    2.566667e+01
    6564,    1.166667e+01,    1.575000e+01,    2.683333e+01
    6565,    1.283333e+01,    1.575000e+01,    2.566667e+01
    6566,    1.283333e+01,    1.575000e+01,    2.683333e+01
    6567,    1.166667e+01,    1.400000e+01,    2.216667e+01
    6568,    1.166667e+01,    1.400000e+01,    2.333333e+01
    6569,    1.166667e+01,    1.516667e+01,    2.216667e+01
    6570,    1.166667e+01,    1.516667e+01,    2.333333e+01
    6571,    1.283333e+01,    1.516667e+01,    2.216667e+01
    6572,    1.283333e+01,    1.516667e+01,    2.333333e+01
    6573,    1.283333e+01,    1.400000e+01,    2.216667e+01
    6574,    1.283333e+01,    1.400000e+01,    2.333333e+01
    6575,    1.516667e+01,    1.400000e+01,    2.333333e+01
    6576,    1.516667e+01,    1.400000e+01,    2.216667e+01
    6577,    1.400000e+01,    1.400000e+01,    2.333333e+01
    6578,    1.400000e+01,    1.400000e+01,    2.216667e+01
    6579,    1.400000e+01,    1.516667e+01,    2.333333e+01
    6580,    1.400000e+01,    1.516667e+01,    2.216667e+01
    6581,    1.516667e+01,    1.516667e+01,    2.333333e+01
    6582,    1.516667e+01,    1.516667e+01,    2.216667e+01
    6583,    1.516667e+01,    1.283333e+01,    2.216667e+01
    6584,    1.516667e+01,    1.283333e+01,    2.333333e+01
    6585,    1.400000e+01,    1.283333e+01,    2.216667e+01
    6586,    1.400000e+01,    1.283333e+01,    2.333333e+01
    6587,    5.833333e+00,    1.400000e+01,    2.216667e+01
    6588,    5.833333e+00,    1.400000e+01,    2.333333e+01
    6589,    5.833333e+00,    1.516667e+01,    2.216667e+01
    6590,    5.833333e+00,    1.516667e+01,    2.333333e+01
    6591,    7.000000e+00,    1.516667e+01,    2.216667e+01
    6592,    7.000000e+00,    1.516667e+01,    2.333333e+01
    6593,    7.000000e+00,    1.400000e+01,    2.333333e+01
    6594,    7.000000e+00,    1.400000e+01,    2.216667e+01
    6595,    4.666667e+00,    1.400000e+01,    2.216667e+01
    6596,    4.666667e+00,    1.400000e+01,    2.333333e+01
    6597,    4.666667e+00,    1.516667e+01,    2.216667e+01
    6598,    4.666667e+00,    1.516667e+01,    2.333333e+01
    6599,    0.000000e+00,    1.400000e+01,    2.216667e+01
    6600,    0.000000e+00,    1.400000e+01,    2.333333e+01
    6601,    0.000000e+00,    1.516667e+01,    2.333333e+01
    6602,    0.000000e+00,    1.516667e+01,    2.216667e+01
    6603,    1.166667e+00,    1.516667e+01,    2.216667e+01
    6604,    1.166667e+00,    1.516667e+01,    2.333333e+01
    6605,    1.166667e+00,    1.400000e+01,    2.216667e+01
    6606,    1.166667e+00,    1.400000e+01,    2.333333e+01
    6607,    2.333333e+00,    1.516667e+01,    2.216667e+01
    6608,    2.333333e+00,    1.516667e+01,    2.333333e+01
    6609,    2.333333e+00,    1.400000e+01,    2.216667e+01
    6610,    2.333333e+00,    1.400000e+01,    2.333333e+01
    6611,    3.500000e+00,    1.516667e+01,    2.216667e+01
    6612,    3.500000e+00,    1.516667e+01,    2.333333e+01
    6613,    3.500000e+00,    1.400000e+01,    2.333333e+01
    6614,    3.500000e+00,    1.400000e+01,    2.216667e+01
    6615,    1.516667e+01,    1.166667e+01,    2.216667e+01
    6616,    1.516667e+01,    1.166667e+01,    2.333333e+01
    6617,    1.400000e+01,    1.166667e+01,    2.216667e+01
    6618,    1.400000e+01,    1.166667e+01,    2.333333e+01
    6619,    1.400000e+01,    9.333333e+00,    2.216667e+01
    6620,    1.400000e+01,    9.333333e+00,    2.333333e+01
    6621,    1.516667e+01,    9.333333e+00,    2.216667e+01
    6622,    1.516667e+01,    9.333333e+00,    2.333333e+01
    6623,    1.516667e+01,    8.166667e+00,    2.216667e+01
    6624,    1.516667e+01,    8.166667e+00,    2.333333e+01
    6625,    1.400000e+01,    8.166667e+00,    2.216667e+01
    6626,    1.400000e+01,    8.166667e+00,    2.333333e+01
    6627,    1.516667e+01,    7.000000e+00,    2.216667e+01
    6628,    1.516667e+01,    7.000000e+00,    2.333333e+01
    6629,    1.400000e+01,    7.000000e+00,    2.333333e+01
    6630,    1.400000e+01,    7.000000e+00,    2.216667e+01
    6631,    1.516667e+01,    5.833333e+00,    2.216667e+01
    6632,    1.516667e+01,    5.833333e+00,    2.333333e+01
    6633,    1.400000e+01,    5.833333e+00,    2.216667e+01
    6634,    1.400000e+01,    5.833333e+00,    2.333333e+01
    6635,    1.400000e+01,    3.500000e+00,    2.333333e+01
    6636,    1.400000e+01,    3.500000e+00,    2.216667e+01
    6637,    1.516667e+01,    3.500000e+00,    2.216667e+01
    6638,    1.516667e+01,    3.500000e+00,    2.333333e+01
    6639,    1.516667e+01,    2.333333e+00,    2.216667e+01
    6640,    1.516667e+01,    2.333333e+00,    2.333333e+01
    6641,    1.400000e+01,    2.333333e+00,    2.216667e+01
    6642,    1.400000e+01,    2.333333e+00,    2.333333e+01
    6643,    1.516667e+01,    1.166667e+00,    2.216667e+01
    6644,    1.516667e+01,    1.166667e+00,    2.333333e+01
    6645,    1.400000e+01,    1.166667e+00,    2.216667e+01
    6646,    1.400000e+01,    1.166667e+00,    2.333333e+01
    6647,    1.516667e+01,    0.000000e+00,    2.216667e+01
    6648,    1.516667e+01,    0.000000e+00,    2.333333e+01
    6649,    1.400000e+01,    0.000000e+00,    2.333333e+01
    6650,    1.400000e+01,    0.000000e+00,    2.216667e+01
    6651,    1.516667e+01,    4.666667e+00,    2.216667e+01
    6652,    1.516667e+01,    4.666667e+00,    2.333333e+01
    6653,    1.400000e+01,    4.666667e+00,    2.216667e+01
    6654,    1.400000e+01,    4.666667e+00,    2.333333e+01
    6655,    1.400000e+01,    1.050000e+01,    2.333333e+01
    6656,    1.400000e+01,    1.050000e+01,    2.216667e+01
    6657,    1.516667e+01,    1.050000e+01,    2.216667e+01
    6658,    1.516667e+01,    1.050000e+01,    2.333333e+01
    6659,    8.166667e+00,    1.516667e+01,    2.216667e+01
    6660,    8.166667e+00,    1.516667e+01,    2.333333e+01
    6661,    8.166667e+00,    1.400000e+01,    2.216667e+01
    6662,    8.166667e+00,    1.400000e+01,    2.333333e+01
    6663,    9.333333e+00,    1.516667e+01,    2.216667e+01
    6664,    9.333333e+00,    1.516667e+01,    2.333333e+01
    6665,    9.333333e+00,    1.400000e+01,    2.216667e+01
    6666,    9.333333e+00,    1.400000e+01,    2.333333e+01
    6667,    1.050000e+01,    1.516667e+01,    2.216667e+01
    6668,    1.050000e+01,    1.516667e+01,    2.333333e+01
    6669,    1.050000e+01,    1.400000e+01,    2.333333e+01
    6670,    1.050000e+01,    1.400000e+01,    2.216667e+01
    6671,    1.633333e+01,    1.633333e+01,    2.333333e+01
    6672,    1.633333e+01,    1.633333e+01,    2.216667e+01
    6673,    1.400000e+01,    1.633333e+01,    2.333333e+01
    6674,    1.400000e+01,    1.633333e+01,    2.216667e+01
    6675,    9.333333e+00,    1.575000e+01,    2.216667e+01
    6676,    9.333333e+00,    1.575000e+01,    2.333333e+01
    6677,    1.050000e+01,    1.633333e+01,    2.216667e+01
    6678,    1.050000e+01,    1.633333e+01,    2.333333e+01
    6679,    5.833333e+00,    1.575000e+01,    2.216667e+01
    6680,    5.833333e+00,    1.575000e+01,    2.333333e+01
    6681,    7.000000e+00,    1.633333e+01,    2.216667e+01
    6682,    7.000000e+00,    1.633333e+01,    2.333333e+01
    6683,    1.633333e+01,    1.400000e+01,    2.333333e+01
    6684,    1.633333e+01,    1.400000e+01,    2.216667e+01
    6685,    1.575000e+01,    1.283333e+01,    2.333333e+01
    6686,    1.575000e+01,    1.283333e+01,    2.216667e+01
    6687,    1.575000e+01,    1.166667e+01,    2.216667e+01
    6688,    1.575000e+01,    1.166667e+01,    2.333333e+01
    6689,    1.575000e+01,    9.333333e+00,    2.216667e+01
    6690,    1.575000e+01,    9.333333e+00,    2.333333e+01
    6691,    1.575000e+01,    8.166667e+00,    2.216667e+01
    6692,    1.575000e+01,    8.166667e+00,    2.333333e+01
    6693,    1.633333e+01,    7.000000e+00,    2.216667e+01
    6694,    1.633333e+01,    7.000000e+00,    2.333333e+01
    6695,    1.633333e+01,    3.500000e+00,    2.216667e+01
    6696,    1.633333e+01,    3.500000e+00,    2.333333e+01
    6697,    1.575000e+01,    2.333333e+00,    2.216667e+01
    6698,    1.575000e+01,    2.333333e+00,    2.333333e+01
    6699,    1.575000e+01,    1.166667e+00,    2.216667e+01
    6700,    1.575000e+01,    1.166667e+00,    2.333333e+01
    6701,    1.633333e+01,    0.000000e+00,    2.216667e+01
    6702,    1.633333e+01,    0.000000e+00,    2.333333e+01
    6703,    1.575000e+01,    5.833333e+00,    2.216667e+01
    6704,    1.575000e+01,    5.833333e+00,    2.333333e+01
    6705,    1.575000e+01,    4.666667e+00,    2.216667e+01
    6706,    1.575000e+01,    4.666667e+00,    2.333333e+01
    6707,    1.633333e+01,    1.050000e+01,    2.216667e+01
    6708,    1.633333e+01,    1.050000e+01,    2.333333e+01
    6709,    2.333333e+00,    1.575000e+01,    2.216667e+01
    6710,    2.333333e+00,    1.575000e+01,    2.333333e+01
    6711,    3.500000e+00,    1.633333e+01,    2.216667e+01
    6712,    3.500000e+00,    1.633333e+01,    2.333333e+01
    6713,    0.000000e+00,    1.633333e+01,    2.333333e+01
    6714,    0.000000e+00,    1.633333e+01,    2.216667e+01
    6715,    1.166667e+00,    1.575000e+01,    2.333333e+01
    6716,    1.166667e+00,    1.575000e+01,    2.216667e+01
    6717,    4.666667e+00,    1.575000e+01,    2.216667e+01
    6718,    4.666667e+00,    1.575000e+01,    2.333333e+01
    6719,    8.166667e+00,    1.575000e+01,    2.216667e+01
    6720,    8.166667e+00,    1.575000e+01,    2.333333e+01
    6721,    1.166667e+01,    1.575000e+01,    2.216667e+01
    6722,    1.166667e+01,    1.575000e+01,    2.333333e+01
    6723,    1.283333e+01,    1.575000e+01,    2.216667e+01
    6724,    1.283333e+01,    1.575000e+01,    2.333333e+01
    6725,    1.166667e+01,    1.400000e+01,    1.866667e+01
    6726,    1.166667e+01,    1.400000e+01,    1.983333e+01
    6727,    1.166667e+01,    1.516667e+01,    1.866667e+01
    6728,    1.166667e+01,    1.516667e+01,    1.983333e+01
    6729,    1.283333e+01,    1.516667e+01,    1.866667e+01
    6730,    1.283333e+01,    1.516667e+01,    1.983333e+01
    6731,    1.283333e+01,    1.400000e+01,    1.866667e+01
    6732,    1.283333e+01,    1.400000e+01,    1.983333e+01
    6733,    1.516667e+01,    1.400000e+01,    1.983333e+01
    6734,    1.516667e+01,    1.400000e+01,    1.866667e+01
    6735,    1.400000e+01,    1.400000e+01,    1.983333e+01
    6736,    1.400000e+01,    1.400000e+01,    1.866667e+01
    6737,    1.400000e+01,    1.516667e+01,    1.983333e+01
    6738,    1.400000e+01,    1.516667e+01,    1.866667e+01
    6739,    1.516667e+01,    1.516667e+01,    1.983333e+01
    6740,    1.516667e+01,    1.516667e+01,    1.866667e+01
    6741,    1.516667e+01,    1.283333e+01,    1.866667e+01
    6742,    1.516667e+01,    1.283333e+01,    1.983333e+01
    6743,    1.400000e+01,    1.283333e+01,    1.866667e+01
    6744,    1.400000e+01,    1.283333e+01,    1.983333e+01
    6745,    8.166667e+00,    1.400000e+01,    1.866667e+01
    6746,    8.166667e+00,    1.400000e+01,    1.983333e+01
    6747,    8.166667e+00,    1.516667e+01,    1.866667e+01
    6748,    8.166667e+00,    1.516667e+01,    1.983333e+01
    6749,    9.333333e+00,    1.516667e+01,    1.866667e+01
    6750,    9.333333e+00,    1.516667e+01,    1.983333e+01
    6751,    9.333333e+00,    1.400000e+01,    1.866667e+01
    6752,    9.333333e+00,    1.400000e+01,    1.983333e+01
    6753,    1.050000e+01,    1.516667e+01,    1.866667e+01
    6754,    1.050000e+01,    1.516667e+01,    1.983333e+01
    6755,    1.050000e+01,    1.400000e+01,    1.983333e+01
    6756,    1.050000e+01,    1.400000e+01,    1.866667e+01
    6757,    7.000000e+00,    1.400000e+01,    1.983333e+01
    6758,    7.000000e+00,    1.400000e+01,    1.866667e+01
    6759,    7.000000e+00,    1.516667e+01,    1.866667e+01
    6760,    7.000000e+00,    1.516667e+01,    1.983333e+01
    6761,    5.833333e+00,    1.400000e+01,    1.866667e+01
    6762,    5.833333e+00,    1.400000e+01,    1.983333e+01
    6763,    5.833333e+00,    1.516667e+01,    1.866667e+01
    6764,    5.833333e+00,    1.516667e+01,    1.983333e+01
    6765,    1.516667e+01,    1.166667e+01,    1.866667e+01
    6766,    1.516667e+01,    1.166667e+01,    1.983333e+01
    6767,    1.400000e+01,    1.166667e+01,    1.866667e+01
    6768,    1.400000e+01,    1.166667e+01,    1.983333e+01
    6769,    1.400000e+01,    9.333333e+00,    1.866667e+01
    6770,    1.400000e+01,    9.333333e+00,    1.983333e+01
    6771,    1.516667e+01,    9.333333e+00,    1.866667e+01
    6772,    1.516667e+01,    9.333333e+00,    1.983333e+01
    6773,    1.516667e+01,    8.166667e+00,    1.866667e+01
    6774,    1.516667e+01,    8.166667e+00,    1.983333e+01
    6775,    1.400000e+01,    8.166667e+00,    1.866667e+01
    6776,    1.400000e+01,    8.166667e+00,    1.983333e+01
    6777,    1.400000e+01,    7.000000e+00,    1.983333e+01
    6778,    1.400000e+01,    7.000000e+00,    1.866667e+01
    6779,    1.516667e+01,    7.000000e+00,    1.866667e+01
    6780,    1.516667e+01,    7.000000e+00,    1.983333e+01
    6781,    1.516667e+01,    5.833333e+00,    1.866667e+01
    6782,    1.516667e+01,    5.833333e+00,    1.983333e+01
    6783,    1.400000e+01,    5.833333e+00,    1.866667e+01
    6784,    1.400000e+01,    5.833333e+00,    1.983333e+01
    6785,    1.516667e+01,    4.666667e+00,    1.866667e+01
    6786,    1.516667e+01,    4.666667e+00,    1.983333e+01
    6787,    1.400000e+01,    4.666667e+00,    1.866667e+01
    6788,    1.400000e+01,    4.666667e+00,    1.983333e+01
    6789,    1.400000e+01,    3.500000e+00,    1.983333e+01
    6790,    1.400000e+01,    3.500000e+00,    1.866667e+01
    6791,    1.516667e+01,    3.500000e+00,    1.866667e+01
    6792,    1.516667e+01,    3.500000e+00,    1.983333e+01
    6793,    1.516667e+01,    2.333333e+00,    1.866667e+01
    6794,    1.516667e+01,    2.333333e+00,    1.983333e+01
    6795,    1.400000e+01,    2.333333e+00,    1.866667e+01
    6796,    1.400000e+01,    2.333333e+00,    1.983333e+01
    6797,    1.400000e+01,    1.166667e+00,    1.866667e+01
    6798,    1.400000e+01,    1.166667e+00,    1.983333e+01
    6799,    1.516667e+01,    1.166667e+00,    1.866667e+01
    6800,    1.516667e+01,    1.166667e+00,    1.983333e+01
    6801,    1.516667e+01,    0.000000e+00,    1.866667e+01
    6802,    1.516667e+01,    0.000000e+00,    1.983333e+01
    6803,    1.400000e+01,    0.000000e+00,    1.983333e+01
    6804,    1.400000e+01,    0.000000e+00,    1.866667e+01
    6805,    1.400000e+01,    1.050000e+01,    1.983333e+01
    6806,    1.400000e+01,    1.050000e+01,    1.866667e+01
    6807,    1.516667e+01,    1.050000e+01,    1.866667e+01
    6808,    1.516667e+01,    1.050000e+01,    1.983333e+01
    6809,    1.166667e+00,    1.400000e+01,    1.866667e+01
    6810,    1.166667e+00,    1.400000e+01,    1.983333e+01
    6811,    1.166667e+00,    1.516667e+01,    1.866667e+01
    6812,    1.166667e+00,    1.516667e+01,    1.983333e+01
    6813,    2.333333e+00,    1.516667e+01,    1.866667e+01
    6814,    2.333333e+00,    1.516667e+01,    1.983333e+01
    6815,    2.333333e+00,    1.400000e+01,    1.866667e+01
    6816,    2.333333e+00,    1.400000e+01,    1.983333e+01
    6817,    3.500000e+00,    1.516667e+01,    1.866667e+01
    6818,    3.500000e+00,    1.516667e+01,    1.983333e+01
    6819,    3.500000e+00,    1.400000e+01,    1.983333e+01
    6820,    3.500000e+00,    1.400000e+01,    1.866667e+01
    6821,    0.000000e+00,    1.400000e+01,    1.866667e+01
    6822,    0.000000e+00,    1.400000e+01,    1.983333e+01
    6823,    0.000000e+00,    1.516667e+01,    1.983333e+01
    6824,    0.000000e+00,    1.516667e+01,    1.866667e+01
    6825,    4.666667e+00,    1.400000e+01,    1.866667e+01
    6826,    4.666667e+00,    1.400000e+01,    1.983333e+01
    6827,    4.666667e+00,    1.516667e+01,    1.866667e+01
    6828,    4.666667e+00,    1.516667e+01,    1.983333e+01
    6829,    1.633333e+01,    1.633333e+01,    1.983333e+01
    6830,    1.633333e+01,    1.633333e+01,    1.866667e+01
    6831,    1.400000e+01,    1.633333e+01,    1.983333e+01
    6832,    1.400000e+01,    1.633333e+01,    1.866667e+01
    6833,    9.333333e+00,    1.575000e+01,    1.866667e+01
    6834,    9.333333e+00,    1.575000e+01,    1.983333e+01
    6835,    1.050000e+01,    1.633333e+01,    1.866667e+01
    6836,    1.050000e+01,    1.633333e+01,    1.983333e+01
    6837,    8.166667e+00,    1.575000e+01,    1.866667e+01
    6838,    8.166667e+00,    1.575000e+01,    1.983333e+01
    6839,    7.000000e+00,    1.633333e+01,    1.866667e+01
    6840,    7.000000e+00,    1.633333e+01,    1.983333e+01
    6841,    2.333333e+00,    1.575000e+01,    1.866667e+01
    6842,    2.333333e+00,    1.575000e+01,    1.983333e+01
    6843,    3.500000e+00,    1.633333e+01,    1.866667e+01
    6844,    3.500000e+00,    1.633333e+01,    1.983333e+01
    6845,    1.166667e+00,    1.575000e+01,    1.866667e+01
    6846,    1.166667e+00,    1.575000e+01,    1.983333e+01
    6847,    0.000000e+00,    1.633333e+01,    1.983333e+01
    6848,    0.000000e+00,    1.633333e+01,    1.866667e+01
    6849,    1.633333e+01,    1.400000e+01,    1.983333e+01
    6850,    1.633333e+01,    1.400000e+01,    1.866667e+01
    6851,    1.575000e+01,    1.283333e+01,    1.983333e+01
    6852,    1.575000e+01,    1.283333e+01,    1.866667e+01
    6853,    1.575000e+01,    1.166667e+01,    1.866667e+01
    6854,    1.575000e+01,    1.166667e+01,    1.983333e+01
    6855,    1.575000e+01,    9.333333e+00,    1.866667e+01
    6856,    1.575000e+01,    9.333333e+00,    1.983333e+01
    6857,    1.575000e+01,    8.166667e+00,    1.866667e+01
    6858,    1.575000e+01,    8.166667e+00,    1.983333e+01
    6859,    1.633333e+01,    7.000000e+00,    1.866667e+01
    6860,    1.633333e+01,    7.000000e+00,    1.983333e+01
    6861,    1.575000e+01,    5.833333e+00,    1.866667e+01
    6862,    1.575000e+01,    5.833333e+00,    1.983333e+01
    6863,    1.633333e+01,    3.500000e+00,    1.866667e+01
    6864,    1.633333e+01,    3.500000e+00,    1.983333e+01
    6865,    1.575000e+01,    2.333333e+00,    1.866667e+01
    6866,    1.575000e+01,    2.333333e+00,    1.983333e+01
    6867,    1.575000e+01,    1.166667e+00,    1.866667e+01
    6868,    1.575000e+01,    1.166667e+00,    1.983333e+01
    6869,    1.633333e+01,    0.000000e+00,    1.866667e+01
    6870,    1.633333e+01,    0.000000e+00,    1.983333e+01
    6871,    1.575000e+01,    4.666667e+00,    1.866667e+01
    6872,    1.575000e+01,    4.666667e+00,    1.983333e+01
    6873,    1.633333e+01,    1.050000e+01,    1.866667e+01
    6874,    1.633333e+01,    1.050000e+01,    1.983333e+01
    6875,    4.666667e+00,    1.575000e+01,    1.866667e+01
    6876,    4.666667e+00,    1.575000e+01,    1.983333e+01
    6877,    5.833333e+00,    1.575000e+01,    1.866667e+01
    6878,    5.833333e+00,    1.575000e+01,    1.983333e+01
    6879,    1.166667e+01,    1.575000e+01,    1.866667e+01
    6880,    1.166667e+01,    1.575000e+01,    1.983333e+01
    6881,    1.283333e+01,    1.575000e+01,    1.866667e+01
    6882,    1.283333e+01,    1.575000e+01,    1.983333e+01
**
********************************** E L E M E N T S ****************************
*ELEMENT, TYPE=C3D8R, ELSET=EB1
       1,    2768,    2791,    3067,    2969,    2781,    2828,    3660,    3233
       2,    2791,    2790,    3058,    3067,    2828,    2841,    3661,    3660
       3,    2790,    2789,    3049,    3058,    2841,    2854,    3662,    3661
       4,    2789,    2788,    3040,    3049,    2854,    2867,    3663,    3662
       5,    2788,    2787,    3031,    3040,    2867,    2880,    3664,    3663
       6,    2787,    2786,    3022,    3031,    2880,    2893,    3665,    3664
       7,    2786,    2785,    3013,    3022,    2893,    2906,    3666,    3665
       8,    2785,    2784,    3004,    3013,    2906,    2919,    3667,    3666
       9,    2784,    2783,    2995,    3004,    2919,    2932,    3668,    3667
      10,    2783,    2782,    2967,    2995,    2932,    2810,    3442,    3668
      11,    2969,    3067,    3066,    2970,    3233,    3660,    3669,    3220
      12,    3067,    3058,    3057,    3066,    3660,    3661,    3670,    3669
      13,    3058,    3049,    3048,    3057,    3661,    3662,    3671,    3670
      14,    3049,    3040,    3039,    3048,    3662,    3663,    3672,    3671
      15,    3040,    3031,    3030,    3039,    3663,    3664,    3673,    3672
      16,    3031,    3022,    3021,    3030,    3664,    3665,    3674,    3673
      17,    3022,    3013,    3012,    3021,    3665,    3666,    3675,    3674
      18,    3013,    3004,    3003,    3012,    3666,    3667,    3676,    3675
      19,    3004,    2995,    2994,    3003,    3667,    3668,    3677,    3676
      20,    2995,    2967,    2966,    2994,    3668,    3442,    3461,    3677
      21,    2970,    3066,    3065,    2971,    3220,    3669,    3678,    3207
      22,    3066,    3057,    3056,    3065,    3669,    3670,    3679,    3678
      23,    3057,    3048,    3047,    3056,    3670,    3671,    3680,    3679
      24,    3048,    3039,    3038,    3047,    3671,    3672,    3681,    3680
      25,    3039,    3030,    3029,    3038,    3672,    3673,    3682,    3681
      26,    3030,    3021,    3020,    3029,    3673,    3674,    3683,    3682
      27,    3021,    3012,    3011,    3020,    3674,    3675,    3684,    3683
      28,    3012,    3003,    3002,    3011,    3675,    3676,    3685,    3684
      29,    3003,    2994,    2993,    3002,    3676,    3677,    3686,    3685
      30,    2994,    2966,    2965,    2993,    3677,    3461,    3480,    3686
      31,    2971,    3065,    3064,    2972,    3207,    3678,    3687,    3194
      32,    3065,    3056,    3055,    3064,    3678,    3679,    3688,    3687
      33,    3056,    3047,    3046,    3055,    3679,    3680,    3689,    3688
      34,    3047,    3038,    3037,    3046,    3680,    3681,    3690,    3689
      35,    3038,    3029,    3028,    3037,    3681,    3682,    3691,    3690
      36,    3029,    3020,    3019,    3028,    3682,    3683,    3692,    3691
      37,    3020,    3011,    3010,    3019,    3683,    3684,    3693,    3692
      38,    3011,    3002,    3001,    3010,    3684,    3685,    3694,    3693
      39,    3002,    2993,    2992,    3001,    3685,    3686,    3695,    3694
      40,    2993,    2965,    2964,    2992,    3686,    3480,    3499,    3695
      41,    2972,    3064,    3063,    2973,    3194,    3687,    3696,    3181
      42,    3064,    3055,    3054,    3063,    3687,    3688,    3697,    3696
      43,    3055,    3046,    3045,    3054,    3688,    3689,    3698,    3697
      44,    3046,    3037,    3036,    3045,    3689,    3690,    3699,    3698
      45,    3037,    3028,    3027,    3036,    3690,    3691,    3700,    3699
      46,    3028,    3019,    3018,    3027,    3691,    3692,    3701,    3700
      47,    3019,    3010,    3009,    3018,    3692,    3693,    3702,    3701
      48,    3010,    3001,    3000,    3009,    3693,    3694,    3703,    3702
      49,    3001,    2992,    2991,    3000,    3694,    3695,    3704,    3703
      50,    2992,    2964,    2963,    2991,    3695,    3499,    3518,    3704
      51,    2973,    3063,    3062,    2974,    3181,    3696,    3705,    3168
      52,    3063,    3054,    3053,    3062,    3696,    3697,    3706,    3705
      53,    3054,    3045,    3044,    3053,    3697,    3698,    3707,    3706
      54,    3045,    3036,    3035,    3044,    3698,    3699,    3708,    3707
      55,    3036,    3027,    3026,    3035,    3699,    3700,    3709,    3708
      56,    3027,    3018,    3017,    3026,    3700,    3701,    3710,    3709
      57,    3018,    3009,    3008,    3017,    3701,    3702,    3711,    3710
      58,    3009,    3000,    2999,    3008,    3702,    3703,    3712,    3711
      59,    3000,    2991,    2990,    2999,    3703,    3704,    3713,    3712
      60,    2991,    2963,    2962,    2990,    3704,    3518,    3537,    3713
      61,    2974,    3062,    3061,    2975,    3168,    3705,    3714,    3155
      62,    3062,    3053,    3052,    3061,    3705,    3706,    3715,    3714
      63,    3053,    3044,    3043,    3052,    3706,    3707,    3716,    3715
      64,    3044,    3035,    3034,    3043,    3707,    3708,    3717,    3716
      65,    3035,    3026,    3025,    3034,    3708,    3709,    3718,    3717
      66,    3026,    3017,    3016,    3025,    3709,    3710,    3719,    3718
      67,    3017,    3008,    3007,    3016,    3710,    3711,    3720,    3719
      68,    3008,    2999,    2998,    3007,    3711,    3712,    3721,    3720
      69,    2999,    2990,    2989,    2998,    3712,    3713,    3722,    3721
      70,    2990,    2962,    2961,    2989,    3713,    3537,    3556,    3722
      71,    2975,    3061,    3060,    2976,    3155,    3714,    3723,    3142
      72,    3061,    3052,    3051,    3060,    3714,    3715,    3724,    3723
      73,    3052,    3043,    3042,    3051,    3715,    3716,    3725,    3724
      74,    3043,    3034,    3033,    3042,    3716,    3717,    3726,    3725
      75,    3034,    3025,    3024,    3033,    3717,    3718,    3727,    3726
      76,    3025,    3016,    3015,    3024,    3718,    3719,    3728,    3727
      77,    3016,    3007,    3006,    3015,    3719,    3720,    3729,    3728
      78,    3007,    2998,    2997,    3006,    3720,    3721,    3730,    3729
      79,    2998,    2989,    2988,    2997,    3721,    3722,    3731,    3730
      80,    2989,    2961,    2960,    2988,    3722,    3556,    3575,    3731
      81,    2976,    3060,    3059,    2977,    3142,    3723,    3732,    3129
      82,    3060,    3051,    3050,    3059,    3723,    3724,    3733,    3732
      83,    3051,    3042,    3041,    3050,    3724,    3725,    3734,    3733
      84,    3042,    3033,    3032,    3041,    3725,    3726,    3735,    3734
      85,    3033,    3024,    3023,    3032,    3726,    3727,    3736,    3735
      86,    3024,    3015,    3014,    3023,    3727,    3728,    3737,    3736
      87,    3015,    3006,    3005,    3014,    3728,    3729,    3738,    3737
      88,    3006,    2997,    2996,    3005,    3729,    3730,    3739,    3738
      89,    2997,    2988,    2987,    2996,    3730,    3731,    3740,    3739
      90,    2988,    2960,    2959,    2987,    3731,    3575,    3594,    3740
      91,    2977,    3059,    2978,    2968,    3129,    3732,    3423,    3086
      92,    3059,    3050,    2979,    2978,    3732,    3733,    3404,    3423
      93,    3050,    3041,    2980,    2979,    3733,    3734,    3385,    3404
      94,    3041,    3032,    2981,    2980,    3734,    3735,    3366,    3385
      95,    3032,    3023,    2982,    2981,    3735,    3736,    3347,    3366
      96,    3023,    3014,    2983,    2982,    3736,    3737,    3328,    3347
      97,    3014,    3005,    2984,    2983,    3737,    3738,    3309,    3328
      98,    3005,    2996,    2985,    2984,    3738,    3739,    3290,    3309
      99,    2996,    2987,    2986,    2985,    3739,    3740,    3271,    3290
     100,    2987,    2959,    2958,    2986,    3740,    3594,    3252,    3271
     101,    2781,    2828,    3660,    3233,    2780,    2827,    3741,    3232
     102,    2828,    2841,    3661,    3660,    2827,    2840,    3742,    3741
     103,    2841,    2854,    3662,    3661,    2840,    2853,    3743,    3742
     104,    2854,    2867,    3663,    3662,    2853,    2866,    3744,    3743
     105,    2867,    2880,    3664,    3663,    2866,    2879,    3745,    3744
     106,    2880,    2893,    3665,    3664,    2879,    2892,    3746,    3745
     107,    2893,    2906,    3666,    3665,    2892,    2905,    3747,    3746
     108,    2906,    2919,    3667,    3666,    2905,    2918,    3748,    3747
     109,    2919,    2932,    3668,    3667,    2918,    2931,    3749,    3748
     110,    2932,    2810,    3442,    3668,    2931,    2809,    3441,    3749
     111,    3233,    3660,    3669,    3220,    3232,    3741,    3750,    3219
     112,    3660,    3661,    3670,    3669,    3741,    3742,    3751,    3750
     113,    3661,    3662,    3671,    3670,    3742,    3743,    3752,    3751
     114,    3662,    3663,    3672,    3671,    3743,    3744,    3753,    3752
     115,    3663,    3664,    3673,    3672,    3744,    3745,    3754,    3753
     116,    3664,    3665,    3674,    3673,    3745,    3746,    3755,    3754
     117,    3665,    3666,    3675,    3674,    3746,    3747,    3756,    3755
     118,    3666,    3667,    3676,    3675,    3747,    3748,    3757,    3756
     119,    3667,    3668,    3677,    3676,    3748,    3749,    3758,    3757
     120,    3668,    3442,    3461,    3677,    3749,    3441,    3460,    3758
     121,    3220,    3669,    3678,    3207,    3219,    3750,    3759,    3206
     122,    3669,    3670,    3679,    3678,    3750,    3751,    3760,    3759
     123,    3670,    3671,    3680,    3679,    3751,    3752,    3761,    3760
     124,    3671,    3672,    3681,    3680,    3752,    3753,    3762,    3761
     125,    3672,    3673,    3682,    3681,    3753,    3754,    3763,    3762
     126,    3673,    3674,    3683,    3682,    3754,    3755,    3764,    3763
     127,    3674,    3675,    3684,    3683,    3755,    3756,    3765,    3764
     128,    3675,    3676,    3685,    3684,    3756,    3757,    3766,    3765
     129,    3676,    3677,    3686,    3685,    3757,    3758,    3767,    3766
     130,    3677,    3461,    3480,    3686,    3758,    3460,    3479,    3767
     131,    3207,    3678,    3687,    3194,    3206,    3759,    3768,    3193
     132,    3678,    3679,    3688,    3687,    3759,    3760,    3769,    3768
     133,    3679,    3680,    3689,    3688,    3760,    3761,    3770,    3769
     134,    3680,    3681,    3690,    3689,    3761,    3762,    3771,    3770
     135,    3681,    3682,    3691,    3690,    3762,    3763,    3772,    3771
     136,    3682,    3683,    3692,    3691,    3763,    3764,    3773,    3772
     137,    3683,    3684,    3693,    3692,    3764,    3765,    3774,    3773
     138,    3684,    3685,    3694,    3693,    3765,    3766,    3775,    3774
     139,    3685,    3686,    3695,    3694,    3766,    3767,    3776,    3775
     140,    3686,    3480,    3499,    3695,    3767,    3479,    3498,    3776
     141,    3194,    3687,    3696,    3181,    3193,    3768,    3777,    3180
     142,    3687,    3688,    3697,    3696,    3768,    3769,    3778,    3777
     143,    3688,    3689,    3698,    3697,    3769,    3770,    3779,    3778
     144,    3689,    3690,    3699,    3698,    3770,    3771,    3780,    3779
     145,    3690,    3691,    3700,    3699,    3771,    3772,    3781,    3780
     146,    3691,    3692,    3701,    3700,    3772,    3773,    3782,    3781
     147,    3692,    3693,    3702,    3701,    3773,    3774,    3783,    3782
     148,    3693,    3694,    3703,    3702,    3774,    3775,    3784,    3783
     149,    3694,    3695,    3704,    3703,    3775,    3776,    3785,    3784
     150,    3695,    3499,    3518,    3704,    3776,    3498,    3517,    3785
     151,    3181,    3696,    3705,    3168,    3180,    3777,    3786,    3167
     152,    3696,    3697,    3706,    3705,    3777,    3778,    3787,    3786
     153,    3697,    3698,    3707,    3706,    3778,    3779,    3788,    3787
     154,    3698,    3699,    3708,    3707,    3779,    3780,    3789,    3788
     155,    3699,    3700,    3709,    3708,    3780,    3781,    3790,    3789
     156,    3700,    3701,    3710,    3709,    3781,    3782,    3791,    3790
     157,    3701,    3702,    3711,    3710,    3782,    3783,    3792,    3791
     158,    3702,    3703,    3712,    3711,    3783,    3784,    3793,    3792
     159,    3703,    3704,    3713,    3712,    3784,    3785,    3794,    3793
     160,    3704,    3518,    3537,    3713,    3785,    3517,    3536,    3794
     161,    3168,    3705,    3714,    3155,    3167,    3786,    3795,    3154
     162,    3705,    3706,    3715,    3714,    3786,    3787,    3796,    3795
     163,    3706,    3707,    3716,    3715,    3787,    3788,    3797,    3796
     164,    3707,    3708,    3717,    3716,    3788,    3789,    3798,    3797
     165,    3708,    3709,    3718,    3717,    3789,    3790,    3799,    3798
     166,    3709,    3710,    3719,    3718,    3790,    3791,    3800,    3799
     167,    3710,    3711,    3720,    3719,    3791,    3792,    3801,    3800
     168,    3711,    3712,    3721,    3720,    3792,    3793,    3802,    3801
     169,    3712,    3713,    3722,    3721,    3793,    3794,    3803,    3802
     170,    3713,    3537,    3556,    3722,    3794,    3536,    3555,    3803
     171,    3155,    3714,    3723,    3142,    3154,    3795,    3804,    3141
     172,    3714,    3715,    3724,    3723,    3795,    3796,    3805,    3804
     173,    3715,    3716,    3725,    3724,    3796,    3797,    3806,    3805
     174,    3716,    3717,    3726,    3725,    3797,    3798,    3807,    3806
     175,    3717,    3718,    3727,    3726,    3798,    3799,    3808,    3807
     176,    3718,    3719,    3728,    3727,    3799,    3800,    3809,    3808
     177,    3719,    3720,    3729,    3728,    3800,    3801,    3810,    3809
     178,    3720,    3721,    3730,    3729,    3801,    3802,    3811,    3810
     179,    3721,    3722,    3731,    3730,    3802,    3803,    3812,    3811
     180,    3722,    3556,    3575,    3731,    3803,    3555,    3574,    3812
     181,    3142,    3723,    3732,    3129,    3141,    3804,    3813,    3128
     182,    3723,    3724,    3733,    3732,    3804,    3805,    3814,    3813
     183,    3724,    3725,    3734,    3733,    3805,    3806,    3815,    3814
     184,    3725,    3726,    3735,    3734,    3806,    3807,    3816,    3815
     185,    3726,    3727,    3736,    3735,    3807,    3808,    3817,    3816
     186,    3727,    3728,    3737,    3736,    3808,    3809,    3818,    3817
     187,    3728,    3729,    3738,    3737,    3809,    3810,    3819,    3818
     188,    3729,    3730,    3739,    3738,    3810,    3811,    3820,    3819
     189,    3730,    3731,    3740,    3739,    3811,    3812,    3821,    3820
     190,    3731,    3575,    3594,    3740,    3812,    3574,    3593,    3821
     191,    3129,    3732,    3423,    3086,    3128,    3813,    3422,    3085
     192,    3732,    3733,    3404,    3423,    3813,    3814,    3403,    3422
     193,    3733,    3734,    3385,    3404,    3814,    3815,    3384,    3403
     194,    3734,    3735,    3366,    3385,    3815,    3816,    3365,    3384
     195,    3735,    3736,    3347,    3366,    3816,    3817,    3346,    3365
     196,    3736,    3737,    3328,    3347,    3817,    3818,    3327,    3346
     197,    3737,    3738,    3309,    3328,    3818,    3819,    3308,    3327
     198,    3738,    3739,    3290,    3309,    3819,    3820,    3289,    3308
     199,    3739,    3740,    3271,    3290,    3820,    3821,    3270,    3289
     200,    3740,    3594,    3252,    3271,    3821,    3593,    3251,    3270
     201,    2780,    2827,    3741,    3232,    2779,    2826,    3822,    3231
     202,    2827,    2840,    3742,    3741,    2826,    2839,    3823,    3822
     203,    2840,    2853,    3743,    3742,    2839,    2852,    3824,    3823
     204,    2853,    2866,    3744,    3743,    2852,    2865,    3825,    3824
     205,    2866,    2879,    3745,    3744,    2865,    2878,    3826,    3825
     206,    2879,    2892,    3746,    3745,    2878,    2891,    3827,    3826
     207,    2892,    2905,    3747,    3746,    2891,    2904,    3828,    3827
     208,    2905,    2918,    3748,    3747,    2904,    2917,    3829,    3828
     209,    2918,    2931,    3749,    3748,    2917,    2930,    3830,    3829
     210,    2931,    2809,    3441,    3749,    2930,    2808,    3440,    3830
     211,    3232,    3741,    3750,    3219,    3231,    3822,    3831,    3218
     212,    3741,    3742,    3751,    3750,    3822,    3823,    3832,    3831
     213,    3742,    3743,    3752,    3751,    3823,    3824,    3833,    3832
     214,    3743,    3744,    3753,    3752,    3824,    3825,    3834,    3833
     215,    3744,    3745,    3754,    3753,    3825,    3826,    3835,    3834
     216,    3745,    3746,    3755,    3754,    3826,    3827,    3836,    3835
     217,    3746,    3747,    3756,    3755,    3827,    3828,    3837,    3836
     218,    3747,    3748,    3757,    3756,    3828,    3829,    3838,    3837
     219,    3748,    3749,    3758,    3757,    3829,    3830,    3839,    3838
     220,    3749,    3441,    3460,    3758,    3830,    3440,    3459,    3839
     221,    3219,    3750,    3759,    3206,    3218,    3831,    3840,    3205
     222,    3750,    3751,    3760,    3759,    3831,    3832,    3841,    3840
     223,    3751,    3752,    3761,    3760,    3832,    3833,    3842,    3841
     224,    3752,    3753,    3762,    3761,    3833,    3834,    3843,    3842
     225,    3753,    3754,    3763,    3762,    3834,    3835,    3844,    3843
     226,    3754,    3755,    3764,    3763,    3835,    3836,    3845,    3844
     227,    3755,    3756,    3765,    3764,    3836,    3837,    3846,    3845
     228,    3756,    3757,    3766,    3765,    3837,    3838,    3847,    3846
     229,    3757,    3758,    3767,    3766,    3838,    3839,    3848,    3847
     230,    3758,    3460,    3479,    3767,    3839,    3459,    3478,    3848
     231,    3206,    3759,    3768,    3193,    3205,    3840,    3849,    3192
     232,    3759,    3760,    3769,    3768,    3840,    3841,    3850,    3849
     233,    3760,    3761,    3770,    3769,    3841,    3842,    3851,    3850
     234,    3761,    3762,    3771,    3770,    3842,    3843,    3852,    3851
     235,    3762,    3763,    3772,    3771,    3843,    3844,    3853,    3852
     236,    3763,    3764,    3773,    3772,    3844,    3845,    3854,    3853
     237,    3764,    3765,    3774,    3773,    3845,    3846,    3855,    3854
     238,    3765,    3766,    3775,    3774,    3846,    3847,    3856,    3855
     239,    3766,    3767,    3776,    3775,    3847,    3848,    3857,    3856
     240,    3767,    3479,    3498,    3776,    3848,    3478,    3497,    3857
     241,    3193,    3768,    3777,    3180,    3192,    3849,    3858,    3179
     242,    3768,    3769,    3778,    3777,    3849,    3850,    3859,    3858
     243,    3769,    3770,    3779,    3778,    3850,    3851,    3860,    3859
     244,    3770,    3771,    3780,    3779,    3851,    3852,    3861,    3860
     245,    3771,    3772,    3781,    3780,    3852,    3853,    3862,    3861
     246,    3772,    3773,    3782,    3781,    3853,    3854,    3863,    3862
     247,    3773,    3774,    3783,    3782,    3854,    3855,    3864,    3863
     248,    3774,    3775,    3784,    3783,    3855,    3856,    3865,    3864
     249,    3775,    3776,    3785,    3784,    3856,    3857,    3866,    3865
     250,    3776,    3498,    3517,    3785,    3857,    3497,    3516,    3866
     251,    3180,    3777,    3786,    3167,    3179,    3858,    3867,    3166
     252,    3777,    3778,    3787,    3786,    3858,    3859,    3868,    3867
     253,    3778,    3779,    3788,    3787,    3859,    3860,    3869,    3868
     254,    3779,    3780,    3789,    3788,    3860,    3861,    3870,    3869
     255,    3780,    3781,    3790,    3789,    3861,    3862,    3871,    3870
     256,    3781,    3782,    3791,    3790,    3862,    3863,    3872,    3871
     257,    3782,    3783,    3792,    3791,    3863,    3864,    3873,    3872
     258,    3783,    3784,    3793,    3792,    3864,    3865,    3874,    3873
     259,    3784,    3785,    3794,    3793,    3865,    3866,    3875,    3874
     260,    3785,    3517,    3536,    3794,    3866,    3516,    3535,    3875
     261,    3167,    3786,    3795,    3154,    3166,    3867,    3876,    3153
     262,    3786,    3787,    3796,    3795,    3867,    3868,    3877,    3876
     263,    3787,    3788,    3797,    3796,    3868,    3869,    3878,    3877
     264,    3788,    3789,    3798,    3797,    3869,    3870,    3879,    3878
     265,    3789,    3790,    3799,    3798,    3870,    3871,    3880,    3879
     266,    3790,    3791,    3800,    3799,    3871,    3872,    3881,    3880
     267,    3791,    3792,    3801,    3800,    3872,    3873,    3882,    3881
     268,    3792,    3793,    3802,    3801,    3873,    3874,    3883,    3882
     269,    3793,    3794,    3803,    3802,    3874,    3875,    3884,    3883
     270,    3794,    3536,    3555,    3803,    3875,    3535,    3554,    3884
     271,    3154,    3795,    3804,    3141,    3153,    3876,    3885,    3140
     272,    3795,    3796,    3805,    3804,    3876,    3877,    3886,    3885
     273,    3796,    3797,    3806,    3805,    3877,    3878,    3887,    3886
     274,    3797,    3798,    3807,    3806,    3878,    3879,    3888,    3887
     275,    3798,    3799,    3808,    3807,    3879,    3880,    3889,    3888
     276,    3799,    3800,    3809,    3808,    3880,    3881,    3890,    3889
     277,    3800,    3801,    3810,    3809,    3881,    3882,    3891,    3890
     278,    3801,    3802,    3811,    3810,    3882,    3883,    3892,    3891
     279,    3802,    3803,    3812,    3811,    3883,    3884,    3893,    3892
     280,    3803,    3555,    3574,    3812,    3884,    3554,    3573,    3893
     281,    3141,    3804,    3813,    3128,    3140,    3885,    3894,    3127
     282,    3804,    3805,    3814,    3813,    3885,    3886,    3895,    3894
     283,    3805,    3806,    3815,    3814,    3886,    3887,    3896,    3895
     284,    3806,    3807,    3816,    3815,    3887,    3888,    3897,    3896
     285,    3807,    3808,    3817,    3816,    3888,    3889,    3898,    3897
     286,    3808,    3809,    3818,    3817,    3889,    3890,    3899,    3898
     287,    3809,    3810,    3819,    3818,    3890,    3891,    3900,    3899
     288,    3810,    3811,    3820,    3819,    3891,    3892,    3901,    3900
     289,    3811,    3812,    3821,    3820,    3892,    3893,    3902,    3901
     290,    3812,    3574,    3593,    3821,    3893,    3573,    3592,    3902
     291,    3128,    3813,    3422,    3085,    3127,    3894,    3421,    3084
     292,    3813,    3814,    3403,    3422,    3894,    3895,    3402,    3421
     293,    3814,    3815,    3384,    3403,    3895,    3896,    3383,    3402
     294,    3815,    3816,    3365,    3384,    3896,    3897,    3364,    3383
     295,    3816,    3817,    3346,    3365,    3897,    3898,    3345,    3364
     296,    3817,    3818,    3327,    3346,    3898,    3899,    3326,    3345
     297,    3818,    3819,    3308,    3327,    3899,    3900,    3307,    3326
     298,    3819,    3820,    3289,    3308,    3900,    3901,    3288,    3307
     299,    3820,    3821,    3270,    3289,    3901,    3902,    3269,    3288
     300,    3821,    3593,    3251,    3270,    3902,    3592,    3250,    3269
     301,    2779,    2826,    3822,    3231,    2778,    2825,    3903,    3230
     302,    2826,    2839,    3823,    3822,    2825,    2838,    3904,    3903
     303,    2839,    2852,    3824,    3823,    2838,    2851,    3905,    3904
     304,    2852,    2865,    3825,    3824,    2851,    2864,    3906,    3905
     305,    2865,    2878,    3826,    3825,    2864,    2877,    3907,    3906
     306,    2878,    2891,    3827,    3826,    2877,    2890,    3908,    3907
     307,    2891,    2904,    3828,    3827,    2890,    2903,    3909,    3908
     308,    2904,    2917,    3829,    3828,    2903,    2916,    3910,    3909
     309,    2917,    2930,    3830,    3829,    2916,    2929,    3911,    3910
     310,    2930,    2808,    3440,    3830,    2929,    2807,    3439,    3911
     311,    3231,    3822,    3831,    3218,    3230,    3903,    3912,    3217
     312,    3822,    3823,    3832,    3831,    3903,    3904,    3913,    3912
     313,    3823,    3824,    3833,    3832,    3904,    3905,    3914,    3913
     314,    3824,    3825,    3834,    3833,    3905,    3906,    3915,    3914
     315,    3825,    3826,    3835,    3834,    3906,    3907,    3916,    3915
     316,    3826,    3827,    3836,    3835,    3907,    3908,    3917,    3916
     317,    3827,    3828,    3837,    3836,    3908,    3909,    3918,    3917
     318,    3828,    3829,    3838,    3837,    3909,    3910,    3919,    3918
     319,    3829,    3830,    3839,    3838,    3910,    3911,    3920,    3919
     320,    3830,    3440,    3459,    3839,    3911,    3439,    3458,    3920
     321,    3218,    3831,    3840,    3205,    3217,    3912,    3921,    3204
     322,    3831,    3832,    3841,    3840,    3912,    3913,    3922,    3921
     323,    3832,    3833,    3842,    3841,    3913,    3914,    3923,    3922
     324,    3833,    3834,    3843,    3842,    3914,    3915,    3924,    3923
     325,    3834,    3835,    3844,    3843,    3915,    3916,    3925,    3924
     326,    3835,    3836,    3845,    3844,    3916,    3917,    3926,    3925
     327,    3836,    3837,    3846,    3845,    3917,    3918,    3927,    3926
     328,    3837,    3838,    3847,    3846,    3918,    3919,    3928,    3927
     329,    3838,    3839,    3848,    3847,    3919,    3920,    3929,    3928
     330,    3839,    3459,    3478,    3848,    3920,    3458,    3477,    3929
     331,    3205,    3840,    3849,    3192,    3204,    3921,    3930,    3191
     332,    3840,    3841,    3850,    3849,    3921,    3922,    3931,    3930
     333,    3841,    3842,    3851,    3850,    3922,    3923,    3932,    3931
     334,    3842,    3843,    3852,    3851,    3923,    3924,    3933,    3932
     335,    3843,    3844,    3853,    3852,    3924,    3925,    3934,    3933
     336,    3844,    3845,    3854,    3853,    3925,    3926,    3935,    3934
     337,    3845,    3846,    3855,    3854,    3926,    3927,    3936,    3935
     338,    3846,    3847,    3856,    3855,    3927,    3928,    3937,    3936
     339,    3847,    3848,    3857,    3856,    3928,    3929,    3938,    3937
     340,    3848,    3478,    3497,    3857,    3929,    3477,    3496,    3938
     341,    3192,    3849,    3858,    3179,    3191,    3930,    3939,    3178
     342,    3849,    3850,    3859,    3858,    3930,    3931,    3940,    3939
     343,    3850,    3851,    3860,    3859,    3931,    3932,    3941,    3940
     344,    3851,    3852,    3861,    3860,    3932,    3933,    3942,    3941
     345,    3852,    3853,    3862,    3861,    3933,    3934,    3943,    3942
     346,    3853,    3854,    3863,    3862,    3934,    3935,    3944,    3943
     347,    3854,    3855,    3864,    3863,    3935,    3936,    3945,    3944
     348,    3855,    3856,    3865,    3864,    3936,    3937,    3946,    3945
     349,    3856,    3857,    3866,    3865,    3937,    3938,    3947,    3946
     350,    3857,    3497,    3516,    3866,    3938,    3496,    3515,    3947
     351,    3179,    3858,    3867,    3166,    3178,    3939,    3948,    3165
     352,    3858,    3859,    3868,    3867,    3939,    3940,    3949,    3948
     353,    3859,    3860,    3869,    3868,    3940,    3941,    3950,    3949
     354,    3860,    3861,    3870,    3869,    3941,    3942,    3951,    3950
     355,    3861,    3862,    3871,    3870,    3942,    3943,    3952,    3951
     356,    3862,    3863,    3872,    3871,    3943,    3944,    3953,    3952
     357,    3863,    3864,    3873,    3872,    3944,    3945,    3954,    3953
     358,    3864,    3865,    3874,    3873,    3945,    3946,    3955,    3954
     359,    3865,    3866,    3875,    3874,    3946,    3947,    3956,    3955
     360,    3866,    3516,    3535,    3875,    3947,    3515,    3534,    3956
     361,    3166,    3867,    3876,    3153,    3165,    3948,    3957,    3152
     362,    3867,    3868,    3877,    3876,    3948,    3949,    3958,    3957
     363,    3868,    3869,    3878,    3877,    3949,    3950,    3959,    3958
     364,    3869,    3870,    3879,    3878,    3950,    3951,    3960,    3959
     365,    3870,    3871,    3880,    3879,    3951,    3952,    3961,    3960
     366,    3871,    3872,    3881,    3880,    3952,    3953,    3962,    3961
     367,    3872,    3873,    3882,    3881,    3953,    3954,    3963,    3962
     368,    3873,    3874,    3883,    3882,    3954,    3955,    3964,    3963
     369,    3874,    3875,    3884,    3883,    3955,    3956,    3965,    3964
     370,    3875,    3535,    3554,    3884,    3956,    3534,    3553,    3965
     371,    3153,    3876,    3885,    3140,    3152,    3957,    3966,    3139
     372,    3876,    3877,    3886,    3885,    3957,    3958,    3967,    3966
     373,    3877,    3878,    3887,    3886,    3958,    3959,    3968,    3967
     374,    3878,    3879,    3888,    3887,    3959,    3960,    3969,    3968
     375,    3879,    3880,    3889,    3888,    3960,    3961,    3970,    3969
     376,    3880,    3881,    3890,    3889,    3961,    3962,    3971,    3970
     377,    3881,    3882,    3891,    3890,    3962,    3963,    3972,    3971
     378,    3882,    3883,    3892,    3891,    3963,    3964,    3973,    3972
     379,    3883,    3884,    3893,    3892,    3964,    3965,    3974,    3973
     380,    3884,    3554,    3573,    3893,    3965,    3553,    3572,    3974
     381,    3140,    3885,    3894,    3127,    3139,    3966,    3975,    3126
     382,    3885,    3886,    3895,    3894,    3966,    3967,    3976,    3975
     383,    3886,    3887,    3896,    3895,    3967,    3968,    3977,    3976
     384,    3887,    3888,    3897,    3896,    3968,    3969,    3978,    3977
     385,    3888,    3889,    3898,    3897,    3969,    3970,    3979,    3978
     386,    3889,    3890,    3899,    3898,    3970,    3971,    3980,    3979
     387,    3890,    3891,    3900,    3899,    3971,    3972,    3981,    3980
     388,    3891,    3892,    3901,    3900,    3972,    3973,    3982,    3981
     389,    3892,    3893,    3902,    3901,    3973,    3974,    3983,    3982
     390,    3893,    3573,    3592,    3902,    3974,    3572,    3591,    3983
     391,    3127,    3894,    3421,    3084,    3126,    3975,    3420,    3083
     392,    3894,    3895,    3402,    3421,    3975,    3976,    3401,    3420
     393,    3895,    3896,    3383,    3402,    3976,    3977,    3382,    3401
     394,    3896,    3897,    3364,    3383,    3977,    3978,    3363,    3382
     395,    3897,    3898,    3345,    3364,    3978,    3979,    3344,    3363
     396,    3898,    3899,    3326,    3345,    3979,    3980,    3325,    3344
     397,    3899,    3900,    3307,    3326,    3980,    3981,    3306,    3325
     398,    3900,    3901,    3288,    3307,    3981,    3982,    3287,    3306
     399,    3901,    3902,    3269,    3288,    3982,    3983,    3268,    3287
     400,    3902,    3592,    3250,    3269,    3983,    3591,    3249,    3268
     401,    2778,    2825,    3903,    3230,    2777,    2824,    3984,    3229
     402,    2825,    2838,    3904,    3903,    2824,    2837,    3985,    3984
     403,    2838,    2851,    3905,    3904,    2837,    2850,    3986,    3985
     404,    2851,    2864,    3906,    3905,    2850,    2863,    3987,    3986
     405,    2864,    2877,    3907,    3906,    2863,    2876,    3988,    3987
     406,    2877,    2890,    3908,    3907,    2876,    2889,    3989,    3988
     407,    2890,    2903,    3909,    3908,    2889,    2902,    3990,    3989
     408,    2903,    2916,    3910,    3909,    2902,    2915,    3991,    3990
     409,    2916,    2929,    3911,    3910,    2915,    2928,    3992,    3991
     410,    2929,    2807,    3439,    3911,    2928,    2806,    3438,    3992
     411,    3230,    3903,    3912,    3217,    3229,    3984,    3993,    3216
     412,    3903,    3904,    3913,    3912,    3984,    3985,    3994,    3993
     413,    3904,    3905,    3914,    3913,    3985,    3986,    3995,    3994
     414,    3905,    3906,    3915,    3914,    3986,    3987,    3996,    3995
     415,    3906,    3907,    3916,    3915,    3987,    3988,    3997,    3996
     416,    3907,    3908,    3917,    3916,    3988,    3989,    3998,    3997
     417,    3908,    3909,    3918,    3917,    3989,    3990,    3999,    3998
     418,    3909,    3910,    3919,    3918,    3990,    3991,    4000,    3999
     419,    3910,    3911,    3920,    3919,    3991,    3992,    4001,    4000
     420,    3911,    3439,    3458,    3920,    3992,    3438,    3457,    4001
     421,    3217,    3912,    3921,    3204,    3216,    3993,    4002,    3203
     422,    3912,    3913,    3922,    3921,    3993,    3994,    4003,    4002
     423,    3913,    3914,    3923,    3922,    3994,    3995,    4004,    4003
     424,    3914,    3915,    3924,    3923,    3995,    3996,    4005,    4004
     425,    3915,    3916,    3925,    3924,    3996,    3997,    4006,    4005
     426,    3916,    3917,    3926,    3925,    3997,    3998,    4007,    4006
     427,    3917,    3918,    3927,    3926,    3998,    3999,    4008,    4007
     428,    3918,    3919,    3928,    3927,    3999,    4000,    4009,    4008
     429,    3919,    3920,    3929,    3928,    4000,    4001,    4010,    4009
     430,    3920,    3458,    3477,    3929,    4001,    3457,    3476,    4010
     431,    3204,    3921,    3930,    3191,    3203,    4002,    4011,    3190
     432,    3921,    3922,    3931,    3930,    4002,    4003,    4012,    4011
     433,    3922,    3923,    3932,    3931,    4003,    4004,    4013,    4012
     434,    3923,    3924,    3933,    3932,    4004,    4005,    4014,    4013
     435,    3924,    3925,    3934,    3933,    4005,    4006,    4015,    4014
     436,    3925,    3926,    3935,    3934,    4006,    4007,    4016,    4015
     437,    3926,    3927,    3936,    3935,    4007,    4008,    4017,    4016
     438,    3927,    3928,    3937,    3936,    4008,    4009,    4018,    4017
     439,    3928,    3929,    3938,    3937,    4009,    4010,    4019,    4018
     440,    3929,    3477,    3496,    3938,    4010,    3476,    3495,    4019
     441,    3191,    3930,    3939,    3178,    3190,    4011,    4020,    3177
     442,    3930,    3931,    3940,    3939,    4011,    4012,    4021,    4020
     443,    3931,    3932,    3941,    3940,    4012,    4013,    4022,    4021
     444,    3932,    3933,    3942,    3941,    4013,    4014,    4023,    4022
     445,    3933,    3934,    3943,    3942,    4014,    4015,    4024,    4023
     446,    3934,    3935,    3944,    3943,    4015,    4016,    4025,    4024
     447,    3935,    3936,    3945,    3944,    4016,    4017,    4026,    4025
     448,    3936,    3937,    3946,    3945,    4017,    4018,    4027,    4026
     449,    3937,    3938,    3947,    3946,    4018,    4019,    4028,    4027
     450,    3938,    3496,    3515,    3947,    4019,    3495,    3514,    4028
     451,    3178,    3939,    3948,    3165,    3177,    4020,    4029,    3164
     452,    3939,    3940,    3949,    3948,    4020,    4021,    4030,    4029
     453,    3940,    3941,    3950,    3949,    4021,    4022,    4031,    4030
     454,    3941,    3942,    3951,    3950,    4022,    4023,    4032,    4031
     455,    3942,    3943,    3952,    3951,    4023,    4024,    4033,    4032
     456,    3943,    3944,    3953,    3952,    4024,    4025,    4034,    4033
     457,    3944,    3945,    3954,    3953,    4025,    4026,    4035,    4034
     458,    3945,    3946,    3955,    3954,    4026,    4027,    4036,    4035
     459,    3946,    3947,    3956,    3955,    4027,    4028,    4037,    4036
     460,    3947,    3515,    3534,    3956,    4028,    3514,    3533,    4037
     461,    3165,    3948,    3957,    3152,    3164,    4029,    4038,    3151
     462,    3948,    3949,    3958,    3957,    4029,    4030,    4039,    4038
     463,    3949,    3950,    3959,    3958,    4030,    4031,    4040,    4039
     464,    3950,    3951,    3960,    3959,    4031,    4032,    4041,    4040
     465,    3951,    3952,    3961,    3960,    4032,    4033,    4042,    4041
     466,    3952,    3953,    3962,    3961,    4033,    4034,    4043,    4042
     467,    3953,    3954,    3963,    3962,    4034,    4035,    4044,    4043
     468,    3954,    3955,    3964,    3963,    4035,    4036,    4045,    4044
     469,    3955,    3956,    3965,    3964,    4036,    4037,    4046,    4045
     470,    3956,    3534,    3553,    3965,    4037,    3533,    3552,    4046
     471,    3152,    3957,    3966,    3139,    3151,    4038,    4047,    3138
     472,    3957,    3958,    3967,    3966,    4038,    4039,    4048,    4047
     473,    3958,    3959,    3968,    3967,    4039,    4040,    4049,    4048
     474,    3959,    3960,    3969,    3968,    4040,    4041,    4050,    4049
     475,    3960,    3961,    3970,    3969,    4041,    4042,    4051,    4050
     476,    3961,    3962,    3971,    3970,    4042,    4043,    4052,    4051
     477,    3962,    3963,    3972,    3971,    4043,    4044,    4053,    4052
     478,    3963,    3964,    3973,    3972,    4044,    4045,    4054,    4053
     479,    3964,    3965,    3974,    3973,    4045,    4046,    4055,    4054
     480,    3965,    3553,    3572,    3974,    4046,    3552,    3571,    4055
     481,    3139,    3966,    3975,    3126,    3138,    4047,    4056,    3125
     482,    3966,    3967,    3976,    3975,    4047,    4048,    4057,    4056
     483,    3967,    3968,    3977,    3976,    4048,    4049,    4058,    4057
     484,    3968,    3969,    3978,    3977,    4049,    4050,    4059,    4058
     485,    3969,    3970,    3979,    3978,    4050,    4051,    4060,    4059
     486,    3970,    3971,    3980,    3979,    4051,    4052,    4061,    4060
     487,    3971,    3972,    3981,    3980,    4052,    4053,    4062,    4061
     488,    3972,    3973,    3982,    3981,    4053,    4054,    4063,    4062
     489,    3973,    3974,    3983,    3982,    4054,    4055,    4064,    4063
     490,    3974,    3572,    3591,    3983,    4055,    3571,    3590,    4064
     491,    3126,    3975,    3420,    3083,    3125,    4056,    3419,    3082
     492,    3975,    3976,    3401,    3420,    4056,    4057,    3400,    3419
     493,    3976,    3977,    3382,    3401,    4057,    4058,    3381,    3400
     494,    3977,    3978,    3363,    3382,    4058,    4059,    3362,    3381
     495,    3978,    3979,    3344,    3363,    4059,    4060,    3343,    3362
     496,    3979,    3980,    3325,    3344,    4060,    4061,    3324,    3343
     497,    3980,    3981,    3306,    3325,    4061,    4062,    3305,    3324
     498,    3981,    3982,    3287,    3306,    4062,    4063,    3286,    3305
     499,    3982,    3983,    3268,    3287,    4063,    4064,    3267,    3286
     500,    3983,    3591,    3249,    3268,    4064,    3590,    3248,    3267
     501,    2777,    2824,    3984,    3229,    2776,    2823,    4065,    3228
     502,    2824,    2837,    3985,    3984,    2823,    2836,    4066,    4065
     503,    2837,    2850,    3986,    3985,    2836,    2849,    4067,    4066
     504,    2850,    2863,    3987,    3986,    2849,    2862,    4068,    4067
     505,    2863,    2876,    3988,    3987,    2862,    2875,    4069,    4068
     506,    2876,    2889,    3989,    3988,    2875,    2888,    4070,    4069
     507,    2889,    2902,    3990,    3989,    2888,    2901,    4071,    4070
     508,    2902,    2915,    3991,    3990,    2901,    2914,    4072,    4071
     509,    2915,    2928,    3992,    3991,    2914,    2927,    4073,    4072
     510,    2928,    2806,    3438,    3992,    2927,    2805,    3437,    4073
     511,    3229,    3984,    3993,    3216,    3228,    4065,    4074,    3215
     512,    3984,    3985,    3994,    3993,    4065,    4066,    4075,    4074
     513,    3985,    3986,    3995,    3994,    4066,    4067,    4076,    4075
     514,    3986,    3987,    3996,    3995,    4067,    4068,    4077,    4076
     515,    3987,    3988,    3997,    3996,    4068,    4069,    4078,    4077
     516,    3988,    3989,    3998,    3997,    4069,    4070,    4079,    4078
     517,    3989,    3990,    3999,    3998,    4070,    4071,    4080,    4079
     518,    3990,    3991,    4000,    3999,    4071,    4072,    4081,    4080
     519,    3991,    3992,    4001,    4000,    4072,    4073,    4082,    4081
     520,    3992,    3438,    3457,    4001,    4073,    3437,    3456,    4082
     521,    3216,    3993,    4002,    3203,    3215,    4074,    4083,    3202
     522,    3993,    3994,    4003,    4002,    4074,    4075,    4084,    4083
     523,    3994,    3995,    4004,    4003,    4075,    4076,    4085,    4084
     524,    3995,    3996,    4005,    4004,    4076,    4077,    4086,    4085
     525,    3996,    3997,    4006,    4005,    4077,    4078,    4087,    4086
     526,    3997,    3998,    4007,    4006,    4078,    4079,    4088,    4087
     527,    3998,    3999,    4008,    4007,    4079,    4080,    4089,    4088
     528,    3999,    4000,    4009,    4008,    4080,    4081,    4090,    4089
     529,    4000,    4001,    4010,    4009,    4081,    4082,    4091,    4090
     530,    4001,    3457,    3476,    4010,    4082,    3456,    3475,    4091
     531,    3203,    4002,    4011,    3190,    3202,    4083,    4092,    3189
     532,    4002,    4003,    4012,    4011,    4083,    4084,    4093,    4092
     533,    4003,    4004,    4013,    4012,    4084,    4085,    4094,    4093
     534,    4004,    4005,    4014,    4013,    4085,    4086,    4095,    4094
     535,    4005,    4006,    4015,    4014,    4086,    4087,    4096,    4095
     536,    4006,    4007,    4016,    4015,    4087,    4088,    4097,    4096
     537,    4007,    4008,    4017,    4016,    4088,    4089,    4098,    4097
     538,    4008,    4009,    4018,    4017,    4089,    4090,    4099,    4098
     539,    4009,    4010,    4019,    4018,    4090,    4091,    4100,    4099
     540,    4010,    3476,    3495,    4019,    4091,    3475,    3494,    4100
     541,    3190,    4011,    4020,    3177,    3189,    4092,    4101,    3176
     542,    4011,    4012,    4021,    4020,    4092,    4093,    4102,    4101
     543,    4012,    4013,    4022,    4021,    4093,    4094,    4103,    4102
     544,    4013,    4014,    4023,    4022,    4094,    4095,    4104,    4103
     545,    4014,    4015,    4024,    4023,    4095,    4096,    4105,    4104
     546,    4015,    4016,    4025,    4024,    4096,    4097,    4106,    4105
     547,    4016,    4017,    4026,    4025,    4097,    4098,    4107,    4106
     548,    4017,    4018,    4027,    4026,    4098,    4099,    4108,    4107
     549,    4018,    4019,    4028,    4027,    4099,    4100,    4109,    4108
     550,    4019,    3495,    3514,    4028,    4100,    3494,    3513,    4109
     551,    3177,    4020,    4029,    3164,    3176,    4101,    4110,    3163
     552,    4020,    4021,    4030,    4029,    4101,    4102,    4111,    4110
     553,    4021,    4022,    4031,    4030,    4102,    4103,    4112,    4111
     554,    4022,    4023,    4032,    4031,    4103,    4104,    4113,    4112
     555,    4023,    4024,    4033,    4032,    4104,    4105,    4114,    4113
     556,    4024,    4025,    4034,    4033,    4105,    4106,    4115,    4114
     557,    4025,    4026,    4035,    4034,    4106,    4107,    4116,    4115
     558,    4026,    4027,    4036,    4035,    4107,    4108,    4117,    4116
     559,    4027,    4028,    4037,    4036,    4108,    4109,    4118,    4117
     560,    4028,    3514,    3533,    4037,    4109,    3513,    3532,    4118
     561,    3164,    4029,    4038,    3151,    3163,    4110,    4119,    3150
     562,    4029,    4030,    4039,    4038,    4110,    4111,    4120,    4119
     563,    4030,    4031,    4040,    4039,    4111,    4112,    4121,    4120
     564,    4031,    4032,    4041,    4040,    4112,    4113,    4122,    4121
     565,    4032,    4033,    4042,    4041,    4113,    4114,    4123,    4122
     566,    4033,    4034,    4043,    4042,    4114,    4115,    4124,    4123
     567,    4034,    4035,    4044,    4043,    4115,    4116,    4125,    4124
     568,    4035,    4036,    4045,    4044,    4116,    4117,    4126,    4125
     569,    4036,    4037,    4046,    4045,    4117,    4118,    4127,    4126
     570,    4037,    3533,    3552,    4046,    4118,    3532,    3551,    4127
     571,    3151,    4038,    4047,    3138,    3150,    4119,    4128,    3137
     572,    4038,    4039,    4048,    4047,    4119,    4120,    4129,    4128
     573,    4039,    4040,    4049,    4048,    4120,    4121,    4130,    4129
     574,    4040,    4041,    4050,    4049,    4121,    4122,    4131,    4130
     575,    4041,    4042,    4051,    4050,    4122,    4123,    4132,    4131
     576,    4042,    4043,    4052,    4051,    4123,    4124,    4133,    4132
     577,    4043,    4044,    4053,    4052,    4124,    4125,    4134,    4133
     578,    4044,    4045,    4054,    4053,    4125,    4126,    4135,    4134
     579,    4045,    4046,    4055,    4054,    4126,    4127,    4136,    4135
     580,    4046,    3552,    3571,    4055,    4127,    3551,    3570,    4136
     581,    3138,    4047,    4056,    3125,    3137,    4128,    4137,    3124
     582,    4047,    4048,    4057,    4056,    4128,    4129,    4138,    4137
     583,    4048,    4049,    4058,    4057,    4129,    4130,    4139,    4138
     584,    4049,    4050,    4059,    4058,    4130,    4131,    4140,    4139
     585,    4050,    4051,    4060,    4059,    4131,    4132,    4141,    4140
     586,    4051,    4052,    4061,    4060,    4132,    4133,    4142,    4141
     587,    4052,    4053,    4062,    4061,    4133,    4134,    4143,    4142
     588,    4053,    4054,    4063,    4062,    4134,    4135,    4144,    4143
     589,    4054,    4055,    4064,    4063,    4135,    4136,    4145,    4144
     590,    4055,    3571,    3590,    4064,    4136,    3570,    3589,    4145
     591,    3125,    4056,    3419,    3082,    3124,    4137,    3418,    3081
     592,    4056,    4057,    3400,    3419,    4137,    4138,    3399,    3418
     593,    4057,    4058,    3381,    3400,    4138,    4139,    3380,    3399
     594,    4058,    4059,    3362,    3381,    4139,    4140,    3361,    3380
     595,    4059,    4060,    3343,    3362,    4140,    4141,    3342,    3361
     596,    4060,    4061,    3324,    3343,    4141,    4142,    3323,    3342
     597,    4061,    4062,    3305,    3324,    4142,    4143,    3304,    3323
     598,    4062,    4063,    3286,    3305,    4143,    4144,    3285,    3304
     599,    4063,    4064,    3267,    3286,    4144,    4145,    3266,    3285
     600,    4064,    3590,    3248,    3267,    4145,    3589,    3247,    3266
     601,    2776,    2823,    4065,    3228,    2775,    2822,    4146,    3227
     602,    2823,    2836,    4066,    4065,    2822,    2835,    4147,    4146
     603,    2836,    2849,    4067,    4066,    2835,    2848,    4148,    4147
     604,    2849,    2862,    4068,    4067,    2848,    2861,    4149,    4148
     605,    2862,    2875,    4069,    4068,    2861,    2874,    4150,    4149
     606,    2875,    2888,    4070,    4069,    2874,    2887,    4151,    4150
     607,    2888,    2901,    4071,    4070,    2887,    2900,    4152,    4151
     608,    2901,    2914,    4072,    4071,    2900,    2913,    4153,    4152
     609,    2914,    2927,    4073,    4072,    2913,    2926,    4154,    4153
     610,    2927,    2805,    3437,    4073,    2926,    2804,    3436,    4154
     611,    3228,    4065,    4074,    3215,    3227,    4146,    4155,    3214
     612,    4065,    4066,    4075,    4074,    4146,    4147,    4156,    4155
     613,    4066,    4067,    4076,    4075,    4147,    4148,    4157,    4156
     614,    4067,    4068,    4077,    4076,    4148,    4149,    4158,    4157
     615,    4068,    4069,    4078,    4077,    4149,    4150,    4159,    4158
     616,    4069,    4070,    4079,    4078,    4150,    4151,    4160,    4159
     617,    4070,    4071,    4080,    4079,    4151,    4152,    4161,    4160
     618,    4071,    4072,    4081,    4080,    4152,    4153,    4162,    4161
     619,    4072,    4073,    4082,    4081,    4153,    4154,    4163,    4162
     620,    4073,    3437,    3456,    4082,    4154,    3436,    3455,    4163
     621,    3215,    4074,    4083,    3202,    3214,    4155,    4164,    3201
     622,    4074,    4075,    4084,    4083,    4155,    4156,    4165,    4164
     623,    4075,    4076,    4085,    4084,    4156,    4157,    4166,    4165
     624,    4076,    4077,    4086,    4085,    4157,    4158,    4167,    4166
     625,    4077,    4078,    4087,    4086,    4158,    4159,    4168,    4167
     626,    4078,    4079,    4088,    4087,    4159,    4160,    4169,    4168
     627,    4079,    4080,    4089,    4088,    4160,    4161,    4170,    4169
     628,    4080,    4081,    4090,    4089,    4161,    4162,    4171,    4170
     629,    4081,    4082,    4091,    4090,    4162,    4163,    4172,    4171
     630,    4082,    3456,    3475,    4091,    4163,    3455,    3474,    4172
     631,    3202,    4083,    4092,    3189,    3201,    4164,    4173,    3188
     632,    4083,    4084,    4093,    4092,    4164,    4165,    4174,    4173
     633,    4084,    4085,    4094,    4093,    4165,    4166,    4175,    4174
     634,    4085,    4086,    4095,    4094,    4166,    4167,    4176,    4175
     635,    4086,    4087,    4096,    4095,    4167,    4168,    4177,    4176
     636,    4087,    4088,    4097,    4096,    4168,    4169,    4178,    4177
     637,    4088,    4089,    4098,    4097,    4169,    4170,    4179,    4178
     638,    4089,    4090,    4099,    4098,    4170,    4171,    4180,    4179
     639,    4090,    4091,    4100,    4099,    4171,    4172,    4181,    4180
     640,    4091,    3475,    3494,    4100,    4172,    3474,    3493,    4181
     641,    3189,    4092,    4101,    3176,    3188,    4173,    4182,    3175
     642,    4092,    4093,    4102,    4101,    4173,    4174,    4183,    4182
     643,    4093,    4094,    4103,    4102,    4174,    4175,    4184,    4183
     644,    4094,    4095,    4104,    4103,    4175,    4176,    4185,    4184
     645,    4095,    4096,    4105,    4104,    4176,    4177,    4186,    4185
     646,    4096,    4097,    4106,    4105,    4177,    4178,    4187,    4186
     647,    4097,    4098,    4107,    4106,    4178,    4179,    4188,    4187
     648,    4098,    4099,    4108,    4107,    4179,    4180,    4189,    4188
     649,    4099,    4100,    4109,    4108,    4180,    4181,    4190,    4189
     650,    4100,    3494,    3513,    4109,    4181,    3493,    3512,    4190
     651,    3176,    4101,    4110,    3163,    3175,    4182,    4191,    3162
     652,    4101,    4102,    4111,    4110,    4182,    4183,    4192,    4191
     653,    4102,    4103,    4112,    4111,    4183,    4184,    4193,    4192
     654,    4103,    4104,    4113,    4112,    4184,    4185,    4194,    4193
     655,    4104,    4105,    4114,    4113,    4185,    4186,    4195,    4194
     656,    4105,    4106,    4115,    4114,    4186,    4187,    4196,    4195
     657,    4106,    4107,    4116,    4115,    4187,    4188,    4197,    4196
     658,    4107,    4108,    4117,    4116,    4188,    4189,    4198,    4197
     659,    4108,    4109,    4118,    4117,    4189,    4190,    4199,    4198
     660,    4109,    3513,    3532,    4118,    4190,    3512,    3531,    4199
     661,    3163,    4110,    4119,    3150,    3162,    4191,    4200,    3149
     662,    4110,    4111,    4120,    4119,    4191,    4192,    4201,    4200
     663,    4111,    4112,    4121,    4120,    4192,    4193,    4202,    4201
     664,    4112,    4113,    4122,    4121,    4193,    4194,    4203,    4202
     665,    4113,    4114,    4123,    4122,    4194,    4195,    4204,    4203
     666,    4114,    4115,    4124,    4123,    4195,    4196,    4205,    4204
     667,    4115,    4116,    4125,    4124,    4196,    4197,    4206,    4205
     668,    4116,    4117,    4126,    4125,    4197,    4198,    4207,    4206
     669,    4117,    4118,    4127,    4126,    4198,    4199,    4208,    4207
     670,    4118,    3532,    3551,    4127,    4199,    3531,    3550,    4208
     671,    3150,    4119,    4128,    3137,    3149,    4200,    4209,    3136
     672,    4119,    4120,    4129,    4128,    4200,    4201,    4210,    4209
     673,    4120,    4121,    4130,    4129,    4201,    4202,    4211,    4210
     674,    4121,    4122,    4131,    4130,    4202,    4203,    4212,    4211
     675,    4122,    4123,    4132,    4131,    4203,    4204,    4213,    4212
     676,    4123,    4124,    4133,    4132,    4204,    4205,    4214,    4213
     677,    4124,    4125,    4134,    4133,    4205,    4206,    4215,    4214
     678,    4125,    4126,    4135,    4134,    4206,    4207,    4216,    4215
     679,    4126,    4127,    4136,    4135,    4207,    4208,    4217,    4216
     680,    4127,    3551,    3570,    4136,    4208,    3550,    3569,    4217
     681,    3137,    4128,    4137,    3124,    3136,    4209,    4218,    3123
     682,    4128,    4129,    4138,    4137,    4209,    4210,    4219,    4218
     683,    4129,    4130,    4139,    4138,    4210,    4211,    4220,    4219
     684,    4130,    4131,    4140,    4139,    4211,    4212,    4221,    4220
     685,    4131,    4132,    4141,    4140,    4212,    4213,    4222,    4221
     686,    4132,    4133,    4142,    4141,    4213,    4214,    4223,    4222
     687,    4133,    4134,    4143,    4142,    4214,    4215,    4224,    4223
     688,    4134,    4135,    4144,    4143,    4215,    4216,    4225,    4224
     689,    4135,    4136,    4145,    4144,    4216,    4217,    4226,    4225
     690,    4136,    3570,    3589,    4145,    4217,    3569,    3588,    4226
     691,    3124,    4137,    3418,    3081,    3123,    4218,    3417,    3080
     692,    4137,    4138,    3399,    3418,    4218,    4219,    3398,    3417
     693,    4138,    4139,    3380,    3399,    4219,    4220,    3379,    3398
     694,    4139,    4140,    3361,    3380,    4220,    4221,    3360,    3379
     695,    4140,    4141,    3342,    3361,    4221,    4222,    3341,    3360
     696,    4141,    4142,    3323,    3342,    4222,    4223,    3322,    3341
     697,    4142,    4143,    3304,    3323,    4223,    4224,    3303,    3322
     698,    4143,    4144,    3285,    3304,    4224,    4225,    3284,    3303
     699,    4144,    4145,    3266,    3285,    4225,    4226,    3265,    3284
     700,    4145,    3589,    3247,    3266,    4226,    3588,    3246,    3265
     701,    2775,    2822,    4146,    3227,    2774,    2821,    4227,    3226
     702,    2822,    2835,    4147,    4146,    2821,    2834,    4228,    4227
     703,    2835,    2848,    4148,    4147,    2834,    2847,    4229,    4228
     704,    2848,    2861,    4149,    4148,    2847,    2860,    4230,    4229
     705,    2861,    2874,    4150,    4149,    2860,    2873,    4231,    4230
     706,    2874,    2887,    4151,    4150,    2873,    2886,    4232,    4231
     707,    2887,    2900,    4152,    4151,    2886,    2899,    4233,    4232
     708,    2900,    2913,    4153,    4152,    2899,    2912,    4234,    4233
     709,    2913,    2926,    4154,    4153,    2912,    2925,    4235,    4234
     710,    2926,    2804,    3436,    4154,    2925,    2803,    3435,    4235
     711,    3227,    4146,    4155,    3214,    3226,    4227,    4236,    3213
     712,    4146,    4147,    4156,    4155,    4227,    4228,    4237,    4236
     713,    4147,    4148,    4157,    4156,    4228,    4229,    4238,    4237
     714,    4148,    4149,    4158,    4157,    4229,    4230,    4239,    4238
     715,    4149,    4150,    4159,    4158,    4230,    4231,    4240,    4239
     716,    4150,    4151,    4160,    4159,    4231,    4232,    4241,    4240
     717,    4151,    4152,    4161,    4160,    4232,    4233,    4242,    4241
     718,    4152,    4153,    4162,    4161,    4233,    4234,    4243,    4242
     719,    4153,    4154,    4163,    4162,    4234,    4235,    4244,    4243
     720,    4154,    3436,    3455,    4163,    4235,    3435,    3454,    4244
     721,    3214,    4155,    4164,    3201,    3213,    4236,    4245,    3200
     722,    4155,    4156,    4165,    4164,    4236,    4237,    4246,    4245
     723,    4156,    4157,    4166,    4165,    4237,    4238,    4247,    4246
     724,    4157,    4158,    4167,    4166,    4238,    4239,    4248,    4247
     725,    4158,    4159,    4168,    4167,    4239,    4240,    4249,    4248
     726,    4159,    4160,    4169,    4168,    4240,    4241,    4250,    4249
     727,    4160,    4161,    4170,    4169,    4241,    4242,    4251,    4250
     728,    4161,    4162,    4171,    4170,    4242,    4243,    4252,    4251
     729,    4162,    4163,    4172,    4171,    4243,    4244,    4253,    4252
     730,    4163,    3455,    3474,    4172,    4244,    3454,    3473,    4253
     731,    3201,    4164,    4173,    3188,    3200,    4245,    4254,    3187
     732,    4164,    4165,    4174,    4173,    4245,    4246,    4255,    4254
     733,    4165,    4166,    4175,    4174,    4246,    4247,    4256,    4255
     734,    4166,    4167,    4176,    4175,    4247,    4248,    4257,    4256
     735,    4167,    4168,    4177,    4176,    4248,    4249,    4258,    4257
     736,    4168,    4169,    4178,    4177,    4249,    4250,    4259,    4258
     737,    4169,    4170,    4179,    4178,    4250,    4251,    4260,    4259
     738,    4170,    4171,    4180,    4179,    4251,    4252,    4261,    4260
     739,    4171,    4172,    4181,    4180,    4252,    4253,    4262,    4261
     740,    4172,    3474,    3493,    4181,    4253,    3473,    3492,    4262
     741,    3188,    4173,    4182,    3175,    3187,    4254,    4263,    3174
     742,    4173,    4174,    4183,    4182,    4254,    4255,    4264,    4263
     743,    4174,    4175,    4184,    4183,    4255,    4256,    4265,    4264
     744,    4175,    4176,    4185,    4184,    4256,    4257,    4266,    4265
     745,    4176,    4177,    4186,    4185,    4257,    4258,    4267,    4266
     746,    4177,    4178,    4187,    4186,    4258,    4259,    4268,    4267
     747,    4178,    4179,    4188,    4187,    4259,    4260,    4269,    4268
     748,    4179,    4180,    4189,    4188,    4260,    4261,    4270,    4269
     749,    4180,    4181,    4190,    4189,    4261,    4262,    4271,    4270
     750,    4181,    3493,    3512,    4190,    4262,    3492,    3511,    4271
     751,    3175,    4182,    4191,    3162,    3174,    4263,    4272,    3161
     752,    4182,    4183,    4192,    4191,    4263,    4264,    4273,    4272
     753,    4183,    4184,    4193,    4192,    4264,    4265,    4274,    4273
     754,    4184,    4185,    4194,    4193,    4265,    4266,    4275,    4274
     755,    4185,    4186,    4195,    4194,    4266,    4267,    4276,    4275
     756,    4186,    4187,    4196,    4195,    4267,    4268,    4277,    4276
     757,    4187,    4188,    4197,    4196,    4268,    4269,    4278,    4277
     758,    4188,    4189,    4198,    4197,    4269,    4270,    4279,    4278
     759,    4189,    4190,    4199,    4198,    4270,    4271,    4280,    4279
     760,    4190,    3512,    3531,    4199,    4271,    3511,    3530,    4280
     761,    3162,    4191,    4200,    3149,    3161,    4272,    4281,    3148
     762,    4191,    4192,    4201,    4200,    4272,    4273,    4282,    4281
     763,    4192,    4193,    4202,    4201,    4273,    4274,    4283,    4282
     764,    4193,    4194,    4203,    4202,    4274,    4275,    4284,    4283
     765,    4194,    4195,    4204,    4203,    4275,    4276,    4285,    4284
     766,    4195,    4196,    4205,    4204,    4276,    4277,    4286,    4285
     767,    4196,    4197,    4206,    4205,    4277,    4278,    4287,    4286
     768,    4197,    4198,    4207,    4206,    4278,    4279,    4288,    4287
     769,    4198,    4199,    4208,    4207,    4279,    4280,    4289,    4288
     770,    4199,    3531,    3550,    4208,    4280,    3530,    3549,    4289
     771,    3149,    4200,    4209,    3136,    3148,    4281,    4290,    3135
     772,    4200,    4201,    4210,    4209,    4281,    4282,    4291,    4290
     773,    4201,    4202,    4211,    4210,    4282,    4283,    4292,    4291
     774,    4202,    4203,    4212,    4211,    4283,    4284,    4293,    4292
     775,    4203,    4204,    4213,    4212,    4284,    4285,    4294,    4293
     776,    4204,    4205,    4214,    4213,    4285,    4286,    4295,    4294
     777,    4205,    4206,    4215,    4214,    4286,    4287,    4296,    4295
     778,    4206,    4207,    4216,    4215,    4287,    4288,    4297,    4296
     779,    4207,    4208,    4217,    4216,    4288,    4289,    4298,    4297
     780,    4208,    3550,    3569,    4217,    4289,    3549,    3568,    4298
     781,    3136,    4209,    4218,    3123,    3135,    4290,    4299,    3122
     782,    4209,    4210,    4219,    4218,    4290,    4291,    4300,    4299
     783,    4210,    4211,    4220,    4219,    4291,    4292,    4301,    4300
     784,    4211,    4212,    4221,    4220,    4292,    4293,    4302,    4301
     785,    4212,    4213,    4222,    4221,    4293,    4294,    4303,    4302
     786,    4213,    4214,    4223,    4222,    4294,    4295,    4304,    4303
     787,    4214,    4215,    4224,    4223,    4295,    4296,    4305,    4304
     788,    4215,    4216,    4225,    4224,    4296,    4297,    4306,    4305
     789,    4216,    4217,    4226,    4225,    4297,    4298,    4307,    4306
     790,    4217,    3569,    3588,    4226,    4298,    3568,    3587,    4307
     791,    3123,    4218,    3417,    3080,    3122,    4299,    3416,    3079
     792,    4218,    4219,    3398,    3417,    4299,    4300,    3397,    3416
     793,    4219,    4220,    3379,    3398,    4300,    4301,    3378,    3397
     794,    4220,    4221,    3360,    3379,    4301,    4302,    3359,    3378
     795,    4221,    4222,    3341,    3360,    4302,    4303,    3340,    3359
     796,    4222,    4223,    3322,    3341,    4303,    4304,    3321,    3340
     797,    4223,    4224,    3303,    3322,    4304,    4305,    3302,    3321
     798,    4224,    4225,    3284,    3303,    4305,    4306,    3283,    3302
     799,    4225,    4226,    3265,    3284,    4306,    4307,    3264,    3283
     800,    4226,    3588,    3246,    3265,    4307,    3587,    3245,    3264
     801,    2774,    2821,    4227,    3226,    2773,    2820,    4308,    3225
     802,    2821,    2834,    4228,    4227,    2820,    2833,    4309,    4308
     803,    2834,    2847,    4229,    4228,    2833,    2846,    4310,    4309
     804,    2847,    2860,    4230,    4229,    2846,    2859,    4311,    4310
     805,    2860,    2873,    4231,    4230,    2859,    2872,    4312,    4311
     806,    2873,    2886,    4232,    4231,    2872,    2885,    4313,    4312
     807,    2886,    2899,    4233,    4232,    2885,    2898,    4314,    4313
     808,    2899,    2912,    4234,    4233,    2898,    2911,    4315,    4314
     809,    2912,    2925,    4235,    4234,    2911,    2924,    4316,    4315
     810,    2925,    2803,    3435,    4235,    2924,    2802,    3434,    4316
     811,    3226,    4227,    4236,    3213,    3225,    4308,    4317,    3212
     812,    4227,    4228,    4237,    4236,    4308,    4309,    4318,    4317
     813,    4228,    4229,    4238,    4237,    4309,    4310,    4319,    4318
     814,    4229,    4230,    4239,    4238,    4310,    4311,    4320,    4319
     815,    4230,    4231,    4240,    4239,    4311,    4312,    4321,    4320
     816,    4231,    4232,    4241,    4240,    4312,    4313,    4322,    4321
     817,    4232,    4233,    4242,    4241,    4313,    4314,    4323,    4322
     818,    4233,    4234,    4243,    4242,    4314,    4315,    4324,    4323
     819,    4234,    4235,    4244,    4243,    4315,    4316,    4325,    4324
     820,    4235,    3435,    3454,    4244,    4316,    3434,    3453,    4325
     821,    3213,    4236,    4245,    3200,    3212,    4317,    4326,    3199
     822,    4236,    4237,    4246,    4245,    4317,    4318,    4327,    4326
     823,    4237,    4238,    4247,    4246,    4318,    4319,    4328,    4327
     824,    4238,    4239,    4248,    4247,    4319,    4320,    4329,    4328
     825,    4239,    4240,    4249,    4248,    4320,    4321,    4330,    4329
     826,    4240,    4241,    4250,    4249,    4321,    4322,    4331,    4330
     827,    4241,    4242,    4251,    4250,    4322,    4323,    4332,    4331
     828,    4242,    4243,    4252,    4251,    4323,    4324,    4333,    4332
     829,    4243,    4244,    4253,    4252,    4324,    4325,    4334,    4333
     830,    4244,    3454,    3473,    4253,    4325,    3453,    3472,    4334
     831,    3200,    4245,    4254,    3187,    3199,    4326,    4335,    3186
     832,    4245,    4246,    4255,    4254,    4326,    4327,    4336,    4335
     833,    4246,    4247,    4256,    4255,    4327,    4328,    4337,    4336
     834,    4247,    4248,    4257,    4256,    4328,    4329,    4338,    4337
     835,    4248,    4249,    4258,    4257,    4329,    4330,    4339,    4338
     836,    4249,    4250,    4259,    4258,    4330,    4331,    4340,    4339
     837,    4250,    4251,    4260,    4259,    4331,    4332,    4341,    4340
     838,    4251,    4252,    4261,    4260,    4332,    4333,    4342,    4341
     839,    4252,    4253,    4262,    4261,    4333,    4334,    4343,    4342
     840,    4253,    3473,    3492,    4262,    4334,    3472,    3491,    4343
     841,    3187,    4254,    4263,    3174,    3186,    4335,    4344,    3173
     842,    4254,    4255,    4264,    4263,    4335,    4336,    4345,    4344
     843,    4255,    4256,    4265,    4264,    4336,    4337,    4346,    4345
     844,    4256,    4257,    4266,    4265,    4337,    4338,    4347,    4346
     845,    4257,    4258,    4267,    4266,    4338,    4339,    4348,    4347
     846,    4258,    4259,    4268,    4267,    4339,    4340,    4349,    4348
     847,    4259,    4260,    4269,    4268,    4340,    4341,    4350,    4349
     848,    4260,    4261,    4270,    4269,    4341,    4342,    4351,    4350
     849,    4261,    4262,    4271,    4270,    4342,    4343,    4352,    4351
     850,    4262,    3492,    3511,    4271,    4343,    3491,    3510,    4352
     851,    3174,    4263,    4272,    3161,    3173,    4344,    4353,    3160
     852,    4263,    4264,    4273,    4272,    4344,    4345,    4354,    4353
     853,    4264,    4265,    4274,    4273,    4345,    4346,    4355,    4354
     854,    4265,    4266,    4275,    4274,    4346,    4347,    4356,    4355
     855,    4266,    4267,    4276,    4275,    4347,    4348,    4357,    4356
     856,    4267,    4268,    4277,    4276,    4348,    4349,    4358,    4357
     857,    4268,    4269,    4278,    4277,    4349,    4350,    4359,    4358
     858,    4269,    4270,    4279,    4278,    4350,    4351,    4360,    4359
     859,    4270,    4271,    4280,    4279,    4351,    4352,    4361,    4360
     860,    4271,    3511,    3530,    4280,    4352,    3510,    3529,    4361
     861,    3161,    4272,    4281,    3148,    3160,    4353,    4362,    3147
     862,    4272,    4273,    4282,    4281,    4353,    4354,    4363,    4362
     863,    4273,    4274,    4283,    4282,    4354,    4355,    4364,    4363
     864,    4274,    4275,    4284,    4283,    4355,    4356,    4365,    4364
     865,    4275,    4276,    4285,    4284,    4356,    4357,    4366,    4365
     866,    4276,    4277,    4286,    4285,    4357,    4358,    4367,    4366
     867,    4277,    4278,    4287,    4286,    4358,    4359,    4368,    4367
     868,    4278,    4279,    4288,    4287,    4359,    4360,    4369,    4368
     869,    4279,    4280,    4289,    4288,    4360,    4361,    4370,    4369
     870,    4280,    3530,    3549,    4289,    4361,    3529,    3548,    4370
     871,    3148,    4281,    4290,    3135,    3147,    4362,    4371,    3134
     872,    4281,    4282,    4291,    4290,    4362,    4363,    4372,    4371
     873,    4282,    4283,    4292,    4291,    4363,    4364,    4373,    4372
     874,    4283,    4284,    4293,    4292,    4364,    4365,    4374,    4373
     875,    4284,    4285,    4294,    4293,    4365,    4366,    4375,    4374
     876,    4285,    4286,    4295,    4294,    4366,    4367,    4376,    4375
     877,    4286,    4287,    4296,    4295,    4367,    4368,    4377,    4376
     878,    4287,    4288,    4297,    4296,    4368,    4369,    4378,    4377
     879,    4288,    4289,    4298,    4297,    4369,    4370,    4379,    4378
     880,    4289,    3549,    3568,    4298,    4370,    3548,    3567,    4379
     881,    3135,    4290,    4299,    3122,    3134,    4371,    4380,    3121
     882,    4290,    4291,    4300,    4299,    4371,    4372,    4381,    4380
     883,    4291,    4292,    4301,    4300,    4372,    4373,    4382,    4381
     884,    4292,    4293,    4302,    4301,    4373,    4374,    4383,    4382
     885,    4293,    4294,    4303,    4302,    4374,    4375,    4384,    4383
     886,    4294,    4295,    4304,    4303,    4375,    4376,    4385,    4384
     887,    4295,    4296,    4305,    4304,    4376,    4377,    4386,    4385
     888,    4296,    4297,    4306,    4305,    4377,    4378,    4387,    4386
     889,    4297,    4298,    4307,    4306,    4378,    4379,    4388,    4387
     890,    4298,    3568,    3587,    4307,    4379,    3567,    3586,    4388
     891,    3122,    4299,    3416,    3079,    3121,    4380,    3415,    3078
     892,    4299,    4300,    3397,    3416,    4380,    4381,    3396,    3415
     893,    4300,    4301,    3378,    3397,    4381,    4382,    3377,    3396
     894,    4301,    4302,    3359,    3378,    4382,    4383,    3358,    3377
     895,    4302,    4303,    3340,    3359,    4383,    4384,    3339,    3358
     896,    4303,    4304,    3321,    3340,    4384,    4385,    3320,    3339
     897,    4304,    4305,    3302,    3321,    4385,    4386,    3301,    3320
     898,    4305,    4306,    3283,    3302,    4386,    4387,    3282,    3301
     899,    4306,    4307,    3264,    3283,    4387,    4388,    3263,    3282
     900,    4307,    3587,    3245,    3264,    4388,    3586,    3244,    3263
     901,    2773,    2820,    4308,    3225,    2772,    2819,    4389,    3224
     902,    2820,    2833,    4309,    4308,    2819,    2832,    4390,    4389
     903,    2833,    2846,    4310,    4309,    2832,    2845,    4391,    4390
     904,    2846,    2859,    4311,    4310,    2845,    2858,    4392,    4391
     905,    2859,    2872,    4312,    4311,    2858,    2871,    4393,    4392
     906,    2872,    2885,    4313,    4312,    2871,    2884,    4394,    4393
     907,    2885,    2898,    4314,    4313,    2884,    2897,    4395,    4394
     908,    2898,    2911,    4315,    4314,    2897,    2910,    4396,    4395
     909,    2911,    2924,    4316,    4315,    2910,    2923,    4397,    4396
     910,    2924,    2802,    3434,    4316,    2923,    2801,    3433,    4397
     911,    3225,    4308,    4317,    3212,    3224,    4389,    4398,    3211
     912,    4308,    4309,    4318,    4317,    4389,    4390,    4399,    4398
     913,    4309,    4310,    4319,    4318,    4390,    4391,    4400,    4399
     914,    4310,    4311,    4320,    4319,    4391,    4392,    4401,    4400
     915,    4311,    4312,    4321,    4320,    4392,    4393,    4402,    4401
     916,    4312,    4313,    4322,    4321,    4393,    4394,    4403,    4402
     917,    4313,    4314,    4323,    4322,    4394,    4395,    4404,    4403
     918,    4314,    4315,    4324,    4323,    4395,    4396,    4405,    4404
     919,    4315,    4316,    4325,    4324,    4396,    4397,    4406,    4405
     920,    4316,    3434,    3453,    4325,    4397,    3433,    3452,    4406
     921,    3212,    4317,    4326,    3199,    3211,    4398,    4407,    3198
     922,    4317,    4318,    4327,    4326,    4398,    4399,    4408,    4407
     923,    4318,    4319,    4328,    4327,    4399,    4400,    4409,    4408
     924,    4319,    4320,    4329,    4328,    4400,    4401,    4410,    4409
     925,    4320,    4321,    4330,    4329,    4401,    4402,    4411,    4410
     926,    4321,    4322,    4331,    4330,    4402,    4403,    4412,    4411
     927,    4322,    4323,    4332,    4331,    4403,    4404,    4413,    4412
     928,    4323,    4324,    4333,    4332,    4404,    4405,    4414,    4413
     929,    4324,    4325,    4334,    4333,    4405,    4406,    4415,    4414
     930,    4325,    3453,    3472,    4334,    4406,    3452,    3471,    4415
     931,    3199,    4326,    4335,    3186,    3198,    4407,    4416,    3185
     932,    4326,    4327,    4336,    4335,    4407,    4408,    4417,    4416
     933,    4327,    4328,    4337,    4336,    4408,    4409,    4418,    4417
     934,    4328,    4329,    4338,    4337,    4409,    4410,    4419,    4418
     935,    4329,    4330,    4339,    4338,    4410,    4411,    4420,    4419
     936,    4330,    4331,    4340,    4339,    4411,    4412,    4421,    4420
     937,    4331,    4332,    4341,    4340,    4412,    4413,    4422,    4421
     938,    4332,    4333,    4342,    4341,    4413,    4414,    4423,    4422
     939,    4333,    4334,    4343,    4342,    4414,    4415,    4424,    4423
     940,    4334,    3472,    3491,    4343,    4415,    3471,    3490,    4424
     941,    3186,    4335,    4344,    3173,    3185,    4416,    4425,    3172
     942,    4335,    4336,    4345,    4344,    4416,    4417,    4426,    4425
     943,    4336,    4337,    4346,    4345,    4417,    4418,    4427,    4426
     944,    4337,    4338,    4347,    4346,    4418,    4419,    4428,    4427
     945,    4338,    4339,    4348,    4347,    4419,    4420,    4429,    4428
     946,    4339,    4340,    4349,    4348,    4420,    4421,    4430,    4429
     947,    4340,    4341,    4350,    4349,    4421,    4422,    4431,    4430
     948,    4341,    4342,    4351,    4350,    4422,    4423,    4432,    4431
     949,    4342,    4343,    4352,    4351,    4423,    4424,    4433,    4432
     950,    4343,    3491,    3510,    4352,    4424,    3490,    3509,    4433
     951,    3173,    4344,    4353,    3160,    3172,    4425,    4434,    3159
     952,    4344,    4345,    4354,    4353,    4425,    4426,    4435,    4434
     953,    4345,    4346,    4355,    4354,    4426,    4427,    4436,    4435
     954,    4346,    4347,    4356,    4355,    4427,    4428,    4437,    4436
     955,    4347,    4348,    4357,    4356,    4428,    4429,    4438,    4437
     956,    4348,    4349,    4358,    4357,    4429,    4430,    4439,    4438
     957,    4349,    4350,    4359,    4358,    4430,    4431,    4440,    4439
     958,    4350,    4351,    4360,    4359,    4431,    4432,    4441,    4440
     959,    4351,    4352,    4361,    4360,    4432,    4433,    4442,    4441
     960,    4352,    3510,    3529,    4361,    4433,    3509,    3528,    4442
     961,    3160,    4353,    4362,    3147,    3159,    4434,    4443,    3146
     962,    4353,    4354,    4363,    4362,    4434,    4435,    4444,    4443
     963,    4354,    4355,    4364,    4363,    4435,    4436,    4445,    4444
     964,    4355,    4356,    4365,    4364,    4436,    4437,    4446,    4445
     965,    4356,    4357,    4366,    4365,    4437,    4438,    4447,    4446
     966,    4357,    4358,    4367,    4366,    4438,    4439,    4448,    4447
     967,    4358,    4359,    4368,    4367,    4439,    4440,    4449,    4448
     968,    4359,    4360,    4369,    4368,    4440,    4441,    4450,    4449
     969,    4360,    4361,    4370,    4369,    4441,    4442,    4451,    4450
     970,    4361,    3529,    3548,    4370,    4442,    3528,    3547,    4451
     971,    3147,    4362,    4371,    3134,    3146,    4443,    4452,    3133
     972,    4362,    4363,    4372,    4371,    4443,    4444,    4453,    4452
     973,    4363,    4364,    4373,    4372,    4444,    4445,    4454,    4453
     974,    4364,    4365,    4374,    4373,    4445,    4446,    4455,    4454
     975,    4365,    4366,    4375,    4374,    4446,    4447,    4456,    4455
     976,    4366,    4367,    4376,    4375,    4447,    4448,    4457,    4456
     977,    4367,    4368,    4377,    4376,    4448,    4449,    4458,    4457
     978,    4368,    4369,    4378,    4377,    4449,    4450,    4459,    4458
     979,    4369,    4370,    4379,    4378,    4450,    4451,    4460,    4459
     980,    4370,    3548,    3567,    4379,    4451,    3547,    3566,    4460
     981,    3134,    4371,    4380,    3121,    3133,    4452,    4461,    3120
     982,    4371,    4372,    4381,    4380,    4452,    4453,    4462,    4461
     983,    4372,    4373,    4382,    4381,    4453,    4454,    4463,    4462
     984,    4373,    4374,    4383,    4382,    4454,    4455,    4464,    4463
     985,    4374,    4375,    4384,    4383,    4455,    4456,    4465,    4464
     986,    4375,    4376,    4385,    4384,    4456,    4457,    4466,    4465
     987,    4376,    4377,    4386,    4385,    4457,    4458,    4467,    4466
     988,    4377,    4378,    4387,    4386,    4458,    4459,    4468,    4467
     989,    4378,    4379,    4388,    4387,    4459,    4460,    4469,    4468
     990,    4379,    3567,    3586,    4388,    4460,    3566,    3585,    4469
     991,    3121,    4380,    3415,    3078,    3120,    4461,    3414,    3077
     992,    4380,    4381,    3396,    3415,    4461,    4462,    3395,    3414
     993,    4381,    4382,    3377,    3396,    4462,    4463,    3376,    3395
     994,    4382,    4383,    3358,    3377,    4463,    4464,    3357,    3376
     995,    4383,    4384,    3339,    3358,    4464,    4465,    3338,    3357
     996,    4384,    4385,    3320,    3339,    4465,    4466,    3319,    3338
     997,    4385,    4386,    3301,    3320,    4466,    4467,    3300,    3319
     998,    4386,    4387,    3282,    3301,    4467,    4468,    3281,    3300
     999,    4387,    4388,    3263,    3282,    4468,    4469,    3262,    3281
    1000,    4388,    3586,    3244,    3263,    4469,    3585,    3243,    3262
    1001,    2772,    2819,    4389,    3224,    2771,    2818,    4470,    3223
    1002,    2819,    2832,    4390,    4389,    2818,    2831,    4471,    4470
    1003,    2832,    2845,    4391,    4390,    2831,    2844,    4472,    4471
    1004,    2845,    2858,    4392,    4391,    2844,    2857,    4473,    4472
    1005,    2858,    2871,    4393,    4392,    2857,    2870,    4474,    4473
    1006,    2871,    2884,    4394,    4393,    2870,    2883,    4475,    4474
    1007,    2884,    2897,    4395,    4394,    2883,    2896,    4476,    4475
    1008,    2897,    2910,    4396,    4395,    2896,    2909,    4477,    4476
    1009,    2910,    2923,    4397,    4396,    2909,    2922,    4478,    4477
    1010,    2923,    2801,    3433,    4397,    2922,    2800,    3432,    4478
    1011,    3224,    4389,    4398,    3211,    3223,    4470,    4479,    3210
    1012,    4389,    4390,    4399,    4398,    4470,    4471,    4480,    4479
    1013,    4390,    4391,    4400,    4399,    4471,    4472,    4481,    4480
    1014,    4391,    4392,    4401,    4400,    4472,    4473,    4482,    4481
    1015,    4392,    4393,    4402,    4401,    4473,    4474,    4483,    4482
    1016,    4393,    4394,    4403,    4402,    4474,    4475,    4484,    4483
    1017,    4394,    4395,    4404,    4403,    4475,    4476,    4485,    4484
    1018,    4395,    4396,    4405,    4404,    4476,    4477,    4486,    4485
    1019,    4396,    4397,    4406,    4405,    4477,    4478,    4487,    4486
    1020,    4397,    3433,    3452,    4406,    4478,    3432,    3451,    4487
    1021,    3211,    4398,    4407,    3198,    3210,    4479,    4488,    3197
    1022,    4398,    4399,    4408,    4407,    4479,    4480,    4489,    4488
    1023,    4399,    4400,    4409,    4408,    4480,    4481,    4490,    4489
    1024,    4400,    4401,    4410,    4409,    4481,    4482,    4491,    4490
    1025,    4401,    4402,    4411,    4410,    4482,    4483,    4492,    4491
    1026,    4402,    4403,    4412,    4411,    4483,    4484,    4493,    4492
    1027,    4403,    4404,    4413,    4412,    4484,    4485,    4494,    4493
    1028,    4404,    4405,    4414,    4413,    4485,    4486,    4495,    4494
    1029,    4405,    4406,    4415,    4414,    4486,    4487,    4496,    4495
    1030,    4406,    3452,    3471,    4415,    4487,    3451,    3470,    4496
    1031,    3198,    4407,    4416,    3185,    3197,    4488,    4497,    3184
    1032,    4407,    4408,    4417,    4416,    4488,    4489,    4498,    4497
    1033,    4408,    4409,    4418,    4417,    4489,    4490,    4499,    4498
    1034,    4409,    4410,    4419,    4418,    4490,    4491,    4500,    4499
    1035,    4410,    4411,    4420,    4419,    4491,    4492,    4501,    4500
    1036,    4411,    4412,    4421,    4420,    4492,    4493,    4502,    4501
    1037,    4412,    4413,    4422,    4421,    4493,    4494,    4503,    4502
    1038,    4413,    4414,    4423,    4422,    4494,    4495,    4504,    4503
    1039,    4414,    4415,    4424,    4423,    4495,    4496,    4505,    4504
    1040,    4415,    3471,    3490,    4424,    4496,    3470,    3489,    4505
    1041,    3185,    4416,    4425,    3172,    3184,    4497,    4506,    3171
    1042,    4416,    4417,    4426,    4425,    4497,    4498,    4507,    4506
    1043,    4417,    4418,    4427,    4426,    4498,    4499,    4508,    4507
    1044,    4418,    4419,    4428,    4427,    4499,    4500,    4509,    4508
    1045,    4419,    4420,    4429,    4428,    4500,    4501,    4510,    4509
    1046,    4420,    4421,    4430,    4429,    4501,    4502,    4511,    4510
    1047,    4421,    4422,    4431,    4430,    4502,    4503,    4512,    4511
    1048,    4422,    4423,    4432,    4431,    4503,    4504,    4513,    4512
    1049,    4423,    4424,    4433,    4432,    4504,    4505,    4514,    4513
    1050,    4424,    3490,    3509,    4433,    4505,    3489,    3508,    4514
    1051,    3172,    4425,    4434,    3159,    3171,    4506,    4515,    3158
    1052,    4425,    4426,    4435,    4434,    4506,    4507,    4516,    4515
    1053,    4426,    4427,    4436,    4435,    4507,    4508,    4517,    4516
    1054,    4427,    4428,    4437,    4436,    4508,    4509,    4518,    4517
    1055,    4428,    4429,    4438,    4437,    4509,    4510,    4519,    4518
    1056,    4429,    4430,    4439,    4438,    4510,    4511,    4520,    4519
    1057,    4430,    4431,    4440,    4439,    4511,    4512,    4521,    4520
    1058,    4431,    4432,    4441,    4440,    4512,    4513,    4522,    4521
    1059,    4432,    4433,    4442,    4441,    4513,    4514,    4523,    4522
    1060,    4433,    3509,    3528,    4442,    4514,    3508,    3527,    4523
    1061,    3159,    4434,    4443,    3146,    3158,    4515,    4524,    3145
    1062,    4434,    4435,    4444,    4443,    4515,    4516,    4525,    4524
    1063,    4435,    4436,    4445,    4444,    4516,    4517,    4526,    4525
    1064,    4436,    4437,    4446,    4445,    4517,    4518,    4527,    4526
    1065,    4437,    4438,    4447,    4446,    4518,    4519,    4528,    4527
    1066,    4438,    4439,    4448,    4447,    4519,    4520,    4529,    4528
    1067,    4439,    4440,    4449,    4448,    4520,    4521,    4530,    4529
    1068,    4440,    4441,    4450,    4449,    4521,    4522,    4531,    4530
    1069,    4441,    4442,    4451,    4450,    4522,    4523,    4532,    4531
    1070,    4442,    3528,    3547,    4451,    4523,    3527,    3546,    4532
    1071,    3146,    4443,    4452,    3133,    3145,    4524,    4533,    3132
    1072,    4443,    4444,    4453,    4452,    4524,    4525,    4534,    4533
    1073,    4444,    4445,    4454,    4453,    4525,    4526,    4535,    4534
    1074,    4445,    4446,    4455,    4454,    4526,    4527,    4536,    4535
    1075,    4446,    4447,    4456,    4455,    4527,    4528,    4537,    4536
    1076,    4447,    4448,    4457,    4456,    4528,    4529,    4538,    4537
    1077,    4448,    4449,    4458,    4457,    4529,    4530,    4539,    4538
    1078,    4449,    4450,    4459,    4458,    4530,    4531,    4540,    4539
    1079,    4450,    4451,    4460,    4459,    4531,    4532,    4541,    4540
    1080,    4451,    3547,    3566,    4460,    4532,    3546,    3565,    4541
    1081,    3133,    4452,    4461,    3120,    3132,    4533,    4542,    3119
    1082,    4452,    4453,    4462,    4461,    4533,    4534,    4543,    4542
    1083,    4453,    4454,    4463,    4462,    4534,    4535,    4544,    4543
    1084,    4454,    4455,    4464,    4463,    4535,    4536,    4545,    4544
    1085,    4455,    4456,    4465,    4464,    4536,    4537,    4546,    4545
    1086,    4456,    4457,    4466,    4465,    4537,    4538,    4547,    4546
    1087,    4457,    4458,    4467,    4466,    4538,    4539,    4548,    4547
    1088,    4458,    4459,    4468,    4467,    4539,    4540,    4549,    4548
    1089,    4459,    4460,    4469,    4468,    4540,    4541,    4550,    4549
    1090,    4460,    3566,    3585,    4469,    4541,    3565,    3584,    4550
    1091,    3120,    4461,    3414,    3077,    3119,    4542,    3413,    3076
    1092,    4461,    4462,    3395,    3414,    4542,    4543,    3394,    3413
    1093,    4462,    4463,    3376,    3395,    4543,    4544,    3375,    3394
    1094,    4463,    4464,    3357,    3376,    4544,    4545,    3356,    3375
    1095,    4464,    4465,    3338,    3357,    4545,    4546,    3337,    3356
    1096,    4465,    4466,    3319,    3338,    4546,    4547,    3318,    3337
    1097,    4466,    4467,    3300,    3319,    4547,    4548,    3299,    3318
    1098,    4467,    4468,    3281,    3300,    4548,    4549,    3280,    3299
    1099,    4468,    4469,    3262,    3281,    4549,    4550,    3261,    3280
    1100,    4469,    3585,    3243,    3262,    4550,    3584,    3242,    3261
    1101,    2771,    2818,    4470,    3223,    2770,    2817,    4551,    3222
    1102,    2818,    2831,    4471,    4470,    2817,    2830,    4552,    4551
    1103,    2831,    2844,    4472,    4471,    2830,    2843,    4553,    4552
    1104,    2844,    2857,    4473,    4472,    2843,    2856,    4554,    4553
    1105,    2857,    2870,    4474,    4473,    2856,    2869,    4555,    4554
    1106,    2870,    2883,    4475,    4474,    2869,    2882,    4556,    4555
    1107,    2883,    2896,    4476,    4475,    2882,    2895,    4557,    4556
    1108,    2896,    2909,    4477,    4476,    2895,    2908,    4558,    4557
    1109,    2909,    2922,    4478,    4477,    2908,    2921,    4559,    4558
    1110,    2922,    2800,    3432,    4478,    2921,    2799,    3431,    4559
    1111,    3223,    4470,    4479,    3210,    3222,    4551,    4560,    3209
    1112,    4470,    4471,    4480,    4479,    4551,    4552,    4561,    4560
    1113,    4471,    4472,    4481,    4480,    4552,    4553,    4562,    4561
    1114,    4472,    4473,    4482,    4481,    4553,    4554,    4563,    4562
    1115,    4473,    4474,    4483,    4482,    4554,    4555,    4564,    4563
    1116,    4474,    4475,    4484,    4483,    4555,    4556,    4565,    4564
    1117,    4475,    4476,    4485,    4484,    4556,    4557,    4566,    4565
    1118,    4476,    4477,    4486,    4485,    4557,    4558,    4567,    4566
    1119,    4477,    4478,    4487,    4486,    4558,    4559,    4568,    4567
    1120,    4478,    3432,    3451,    4487,    4559,    3431,    3450,    4568
    1121,    3210,    4479,    4488,    3197,    3209,    4560,    4569,    3196
    1122,    4479,    4480,    4489,    4488,    4560,    4561,    4570,    4569
    1123,    4480,    4481,    4490,    4489,    4561,    4562,    4571,    4570
    1124,    4481,    4482,    4491,    4490,    4562,    4563,    4572,    4571
    1125,    4482,    4483,    4492,    4491,    4563,    4564,    4573,    4572
    1126,    4483,    4484,    4493,    4492,    4564,    4565,    4574,    4573
    1127,    4484,    4485,    4494,    4493,    4565,    4566,    4575,    4574
    1128,    4485,    4486,    4495,    4494,    4566,    4567,    4576,    4575
    1129,    4486,    4487,    4496,    4495,    4567,    4568,    4577,    4576
    1130,    4487,    3451,    3470,    4496,    4568,    3450,    3469,    4577
    1131,    3197,    4488,    4497,    3184,    3196,    4569,    4578,    3183
    1132,    4488,    4489,    4498,    4497,    4569,    4570,    4579,    4578
    1133,    4489,    4490,    4499,    4498,    4570,    4571,    4580,    4579
    1134,    4490,    4491,    4500,    4499,    4571,    4572,    4581,    4580
    1135,    4491,    4492,    4501,    4500,    4572,    4573,    4582,    4581
    1136,    4492,    4493,    4502,    4501,    4573,    4574,    4583,    4582
    1137,    4493,    4494,    4503,    4502,    4574,    4575,    4584,    4583
    1138,    4494,    4495,    4504,    4503,    4575,    4576,    4585,    4584
    1139,    4495,    4496,    4505,    4504,    4576,    4577,    4586,    4585
    1140,    4496,    3470,    3489,    4505,    4577,    3469,    3488,    4586
    1141,    3184,    4497,    4506,    3171,    3183,    4578,    4587,    3170
    1142,    4497,    4498,    4507,    4506,    4578,    4579,    4588,    4587
    1143,    4498,    4499,    4508,    4507,    4579,    4580,    4589,    4588
    1144,    4499,    4500,    4509,    4508,    4580,    4581,    4590,    4589
    1145,    4500,    4501,    4510,    4509,    4581,    4582,    4591,    4590
    1146,    4501,    4502,    4511,    4510,    4582,    4583,    4592,    4591
    1147,    4502,    4503,    4512,    4511,    4583,    4584,    4593,    4592
    1148,    4503,    4504,    4513,    4512,    4584,    4585,    4594,    4593
    1149,    4504,    4505,    4514,    4513,    4585,    4586,    4595,    4594
    1150,    4505,    3489,    3508,    4514,    4586,    3488,    3507,    4595
    1151,    3171,    4506,    4515,    3158,    3170,    4587,    4596,    3157
    1152,    4506,    4507,    4516,    4515,    4587,    4588,    4597,    4596
    1153,    4507,    4508,    4517,    4516,    4588,    4589,    4598,    4597
    1154,    4508,    4509,    4518,    4517,    4589,    4590,    4599,    4598
    1155,    4509,    4510,    4519,    4518,    4590,    4591,    4600,    4599
    1156,    4510,    4511,    4520,    4519,    4591,    4592,    4601,    4600
    1157,    4511,    4512,    4521,    4520,    4592,    4593,    4602,    4601
    1158,    4512,    4513,    4522,    4521,    4593,    4594,    4603,    4602
    1159,    4513,    4514,    4523,    4522,    4594,    4595,    4604,    4603
    1160,    4514,    3508,    3527,    4523,    4595,    3507,    3526,    4604
    1161,    3158,    4515,    4524,    3145,    3157,    4596,    4605,    3144
    1162,    4515,    4516,    4525,    4524,    4596,    4597,    4606,    4605
    1163,    4516,    4517,    4526,    4525,    4597,    4598,    4607,    4606
    1164,    4517,    4518,    4527,    4526,    4598,    4599,    4608,    4607
    1165,    4518,    4519,    4528,    4527,    4599,    4600,    4609,    4608
    1166,    4519,    4520,    4529,    4528,    4600,    4601,    4610,    4609
    1167,    4520,    4521,    4530,    4529,    4601,    4602,    4611,    4610
    1168,    4521,    4522,    4531,    4530,    4602,    4603,    4612,    4611
    1169,    4522,    4523,    4532,    4531,    4603,    4604,    4613,    4612
    1170,    4523,    3527,    3546,    4532,    4604,    3526,    3545,    4613
    1171,    3145,    4524,    4533,    3132,    3144,    4605,    4614,    3131
    1172,    4524,    4525,    4534,    4533,    4605,    4606,    4615,    4614
    1173,    4525,    4526,    4535,    4534,    4606,    4607,    4616,    4615
    1174,    4526,    4527,    4536,    4535,    4607,    4608,    4617,    4616
    1175,    4527,    4528,    4537,    4536,    4608,    4609,    4618,    4617
    1176,    4528,    4529,    4538,    4537,    4609,    4610,    4619,    4618
    1177,    4529,    4530,    4539,    4538,    4610,    4611,    4620,    4619
    1178,    4530,    4531,    4540,    4539,    4611,    4612,    4621,    4620
    1179,    4531,    4532,    4541,    4540,    4612,    4613,    4622,    4621
    1180,    4532,    3546,    3565,    4541,    4613,    3545,    3564,    4622
    1181,    3132,    4533,    4542,    3119,    3131,    4614,    4623,    3118
    1182,    4533,    4534,    4543,    4542,    4614,    4615,    4624,    4623
    1183,    4534,    4535,    4544,    4543,    4615,    4616,    4625,    4624
    1184,    4535,    4536,    4545,    4544,    4616,    4617,    4626,    4625
    1185,    4536,    4537,    4546,    4545,    4617,    4618,    4627,    4626
    1186,    4537,    4538,    4547,    4546,    4618,    4619,    4628,    4627
    1187,    4538,    4539,    4548,    4547,    4619,    4620,    4629,    4628
    1188,    4539,    4540,    4549,    4548,    4620,    4621,    4630,    4629
    1189,    4540,    4541,    4550,    4549,    4621,    4622,    4631,    4630
    1190,    4541,    3565,    3584,    4550,    4622,    3564,    3583,    4631
    1191,    3119,    4542,    3413,    3076,    3118,    4623,    3412,    3075
    1192,    4542,    4543,    3394,    3413,    4623,    4624,    3393,    3412
    1193,    4543,    4544,    3375,    3394,    4624,    4625,    3374,    3393
    1194,    4544,    4545,    3356,    3375,    4625,    4626,    3355,    3374
    1195,    4545,    4546,    3337,    3356,    4626,    4627,    3336,    3355
    1196,    4546,    4547,    3318,    3337,    4627,    4628,    3317,    3336
    1197,    4547,    4548,    3299,    3318,    4628,    4629,    3298,    3317
    1198,    4548,    4549,    3280,    3299,    4629,    4630,    3279,    3298
    1199,    4549,    4550,    3261,    3280,    4630,    4631,    3260,    3279
    1200,    4550,    3584,    3242,    3261,    4631,    3583,    3241,    3260
    1201,    2770,    2817,    4551,    3222,    2769,    2816,    4632,    3221
    1202,    2817,    2830,    4552,    4551,    2816,    2829,    4633,    4632
    1203,    2830,    2843,    4553,    4552,    2829,    2842,    4634,    4633
    1204,    2843,    2856,    4554,    4553,    2842,    2855,    4635,    4634
    1205,    2856,    2869,    4555,    4554,    2855,    2868,    4636,    4635
    1206,    2869,    2882,    4556,    4555,    2868,    2881,    4637,    4636
    1207,    2882,    2895,    4557,    4556,    2881,    2894,    4638,    4637
    1208,    2895,    2908,    4558,    4557,    2894,    2907,    4639,    4638
    1209,    2908,    2921,    4559,    4558,    2907,    2920,    4640,    4639
    1210,    2921,    2799,    3431,    4559,    2920,    2798,    3430,    4640
    1211,    3222,    4551,    4560,    3209,    3221,    4632,    4641,    3208
    1212,    4551,    4552,    4561,    4560,    4632,    4633,    4642,    4641
    1213,    4552,    4553,    4562,    4561,    4633,    4634,    4643,    4642
    1214,    4553,    4554,    4563,    4562,    4634,    4635,    4644,    4643
    1215,    4554,    4555,    4564,    4563,    4635,    4636,    4645,    4644
    1216,    4555,    4556,    4565,    4564,    4636,    4637,    4646,    4645
    1217,    4556,    4557,    4566,    4565,    4637,    4638,    4647,    4646
    1218,    4557,    4558,    4567,    4566,    4638,    4639,    4648,    4647
    1219,    4558,    4559,    4568,    4567,    4639,    4640,    4649,    4648
    1220,    4559,    3431,    3450,    4568,    4640,    3430,    3449,    4649
    1221,    3209,    4560,    4569,    3196,    3208,    4641,    4650,    3195
    1222,    4560,    4561,    4570,    4569,    4641,    4642,    4651,    4650
    1223,    4561,    4562,    4571,    4570,    4642,    4643,    4652,    4651
    1224,    4562,    4563,    4572,    4571,    4643,    4644,    4653,    4652
    1225,    4563,    4564,    4573,    4572,    4644,    4645,    4654,    4653
    1226,    4564,    4565,    4574,    4573,    4645,    4646,    4655,    4654
    1227,    4565,    4566,    4575,    4574,    4646,    4647,    4656,    4655
    1228,    4566,    4567,    4576,    4575,    4647,    4648,    4657,    4656
    1229,    4567,    4568,    4577,    4576,    4648,    4649,    4658,    4657
    1230,    4568,    3450,    3469,    4577,    4649,    3449,    3468,    4658
    1231,    3196,    4569,    4578,    3183,    3195,    4650,    4659,    3182
    1232,    4569,    4570,    4579,    4578,    4650,    4651,    4660,    4659
    1233,    4570,    4571,    4580,    4579,    4651,    4652,    4661,    4660
    1234,    4571,    4572,    4581,    4580,    4652,    4653,    4662,    4661
    1235,    4572,    4573,    4582,    4581,    4653,    4654,    4663,    4662
    1236,    4573,    4574,    4583,    4582,    4654,    4655,    4664,    4663
    1237,    4574,    4575,    4584,    4583,    4655,    4656,    4665,    4664
    1238,    4575,    4576,    4585,    4584,    4656,    4657,    4666,    4665
    1239,    4576,    4577,    4586,    4585,    4657,    4658,    4667,    4666
    1240,    4577,    3469,    3488,    4586,    4658,    3468,    3487,    4667
    1241,    3183,    4578,    4587,    3170,    3182,    4659,    4668,    3169
    1242,    4578,    4579,    4588,    4587,    4659,    4660,    4669,    4668
    1243,    4579,    4580,    4589,    4588,    4660,    4661,    4670,    4669
    1244,    4580,    4581,    4590,    4589,    4661,    4662,    4671,    4670
    1245,    4581,    4582,    4591,    4590,    4662,    4663,    4672,    4671
    1246,    4582,    4583,    4592,    4591,    4663,    4664,    4673,    4672
    1247,    4583,    4584,    4593,    4592,    4664,    4665,    4674,    4673
    1248,    4584,    4585,    4594,    4593,    4665,    4666,    4675,    4674
    1249,    4585,    4586,    4595,    4594,    4666,    4667,    4676,    4675
    1250,    4586,    3488,    3507,    4595,    4667,    3487,    3506,    4676
    1251,    3170,    4587,    4596,    3157,    3169,    4668,    4677,    3156
    1252,    4587,    4588,    4597,    4596,    4668,    4669,    4678,    4677
    1253,    4588,    4589,    4598,    4597,    4669,    4670,    4679,    4678
    1254,    4589,    4590,    4599,    4598,    4670,    4671,    4680,    4679
    1255,    4590,    4591,    4600,    4599,    4671,    4672,    4681,    4680
    1256,    4591,    4592,    4601,    4600,    4672,    4673,    4682,    4681
    1257,    4592,    4593,    4602,    4601,    4673,    4674,    4683,    4682
    1258,    4593,    4594,    4603,    4602,    4674,    4675,    4684,    4683
    1259,    4594,    4595,    4604,    4603,    4675,    4676,    4685,    4684
    1260,    4595,    3507,    3526,    4604,    4676,    3506,    3525,    4685
    1261,    3157,    4596,    4605,    3144,    3156,    4677,    4686,    3143
    1262,    4596,    4597,    4606,    4605,    4677,    4678,    4687,    4686
    1263,    4597,    4598,    4607,    4606,    4678,    4679,    4688,    4687
    1264,    4598,    4599,    4608,    4607,    4679,    4680,    4689,    4688
    1265,    4599,    4600,    4609,    4608,    4680,    4681,    4690,    4689
    1266,    4600,    4601,    4610,    4609,    4681,    4682,    4691,    4690
    1267,    4601,    4602,    4611,    4610,    4682,    4683,    4692,    4691
    1268,    4602,    4603,    4612,    4611,    4683,    4684,    4693,    4692
    1269,    4603,    4604,    4613,    4612,    4684,    4685,    4694,    4693
    1270,    4604,    3526,    3545,    4613,    4685,    3525,    3544,    4694
    1271,    3144,    4605,    4614,    3131,    3143,    4686,    4695,    3130
    1272,    4605,    4606,    4615,    4614,    4686,    4687,    4696,    4695
    1273,    4606,    4607,    4616,    4615,    4687,    4688,    4697,    4696
    1274,    4607,    4608,    4617,    4616,    4688,    4689,    4698,    4697
    1275,    4608,    4609,    4618,    4617,    4689,    4690,    4699,    4698
    1276,    4609,    4610,    4619,    4618,    4690,    4691,    4700,    4699
    1277,    4610,    4611,    4620,    4619,    4691,    4692,    4701,    4700
    1278,    4611,    4612,    4621,    4620,    4692,    4693,    4702,    4701
    1279,    4612,    4613,    4622,    4621,    4693,    4694,    4703,    4702
    1280,    4613,    3545,    3564,    4622,    4694,    3544,    3563,    4703
    1281,    3131,    4614,    4623,    3118,    3130,    4695,    4704,    3117
    1282,    4614,    4615,    4624,    4623,    4695,    4696,    4705,    4704
    1283,    4615,    4616,    4625,    4624,    4696,    4697,    4706,    4705
    1284,    4616,    4617,    4626,    4625,    4697,    4698,    4707,    4706
    1285,    4617,    4618,    4627,    4626,    4698,    4699,    4708,    4707
    1286,    4618,    4619,    4628,    4627,    4699,    4700,    4709,    4708
    1287,    4619,    4620,    4629,    4628,    4700,    4701,    4710,    4709
    1288,    4620,    4621,    4630,    4629,    4701,    4702,    4711,    4710
    1289,    4621,    4622,    4631,    4630,    4702,    4703,    4712,    4711
    1290,    4622,    3564,    3583,    4631,    4703,    3563,    3582,    4712
    1291,    3118,    4623,    3412,    3075,    3117,    4704,    3411,    3074
    1292,    4623,    4624,    3393,    3412,    4704,    4705,    3392,    3411
    1293,    4624,    4625,    3374,    3393,    4705,    4706,    3373,    3392
    1294,    4625,    4626,    3355,    3374,    4706,    4707,    3354,    3373
    1295,    4626,    4627,    3336,    3355,    4707,    4708,    3335,    3354
    1296,    4627,    4628,    3317,    3336,    4708,    4709,    3316,    3335
    1297,    4628,    4629,    3298,    3317,    4709,    4710,    3297,    3316
    1298,    4629,    4630,    3279,    3298,    4710,    4711,    3278,    3297
    1299,    4630,    4631,    3260,    3279,    4711,    4712,    3259,    3278
    1300,    4631,    3583,    3241,    3260,    4712,    3582,    3240,    3259
    1301,    2868,    2881,    4637,    4636,    2811,    2812,    3656,    3659
    1302,    2881,    2894,    4638,    4637,    2812,    2813,    3653,    3656
    1303,    2894,    2907,    4639,    4638,    2813,    2814,    3650,    3653
    1304,    2907,    2920,    4640,    4639,    2814,    2815,    3647,    3650
    1305,    2920,    2798,    3430,    4640,    2815,    2797,    3429,    3647
    1306,    4636,    4637,    4646,    4645,    3659,    3656,    3655,    3658
    1307,    4637,    4638,    4647,    4646,    3656,    3653,    3652,    3655
    1308,    4638,    4639,    4648,    4647,    3653,    3650,    3649,    3652
    1309,    4639,    4640,    4649,    4648,    3650,    3647,    3646,    3649
    1310,    4640,    3430,    3449,    4649,    3647,    3429,    3448,    3646
    1311,    4645,    4646,    4655,    4654,    3658,    3655,    3654,    3657
    1312,    4646,    4647,    4656,    4655,    3655,    3652,    3651,    3654
    1313,    4647,    4648,    4657,    4656,    3652,    3649,    3648,    3651
    1314,    4648,    4649,    4658,    4657,    3649,    3646,    3645,    3648
    1315,    4649,    3449,    3468,    4658,    3646,    3448,    3467,    3645
    1316,    4654,    4655,    4664,    4663,    3657,    3654,    3596,    3595
    1317,    4655,    4656,    4665,    4664,    3654,    3651,    3597,    3596
    1318,    4656,    4657,    4666,    4665,    3651,    3648,    3598,    3597
    1319,    4657,    4658,    4667,    4666,    3648,    3645,    3599,    3598
    1320,    4658,    3468,    3487,    4667,    3645,    3467,    3486,    3599
    1321,    4663,    4664,    4673,    4672,    3595,    3596,    3625,    3620
    1322,    4664,    4665,    4674,    4673,    3596,    3597,    3630,    3625
    1323,    4665,    4666,    4675,    4674,    3597,    3598,    3635,    3630
    1324,    4666,    4667,    4676,    4675,    3598,    3599,    3640,    3635
    1325,    4667,    3487,    3506,    4676,    3599,    3486,    3505,    3640
    1326,    3169,    4668,    4677,    3156,    3087,    3600,    3601,    3088
    1327,    4668,    4669,    4678,    4677,    3600,    3605,    3606,    3601
    1328,    4669,    4670,    4679,    4678,    3605,    3610,    3611,    3606
    1329,    4670,    4671,    4680,    4679,    3610,    3615,    3616,    3611
    1330,    4671,    4672,    4681,    4680,    3615,    3620,    3621,    3616
    1331,    4672,    4673,    4682,    4681,    3620,    3625,    3626,    3621
    1332,    4673,    4674,    4683,    4682,    3625,    3630,    3631,    3626
    1333,    4674,    4675,    4684,    4683,    3630,    3635,    3636,    3631
    1334,    4675,    4676,    4685,    4684,    3635,    3640,    3641,    3636
    1335,    4676,    3506,    3525,    4685,    3640,    3505,    3524,    3641
    1336,    3156,    4677,    4686,    3143,    3088,    3601,    3602,    3089
    1337,    4677,    4678,    4687,    4686,    3601,    3606,    3607,    3602
    1338,    4678,    4679,    4688,    4687,    3606,    3611,    3612,    3607
    1339,    4679,    4680,    4689,    4688,    3611,    3616,    3617,    3612
    1340,    4680,    4681,    4690,    4689,    3616,    3621,    3622,    3617
    1341,    4681,    4682,    4691,    4690,    3621,    3626,    3627,    3622
    1342,    4682,    4683,    4692,    4691,    3626,    3631,    3632,    3627
    1343,    4683,    4684,    4693,    4692,    3631,    3636,    3637,    3632
    1344,    4684,    4685,    4694,    4693,    3636,    3641,    3642,    3637
    1345,    4685,    3525,    3544,    4694,    3641,    3524,    3543,    3642
    1346,    3143,    4686,    4695,    3130,    3089,    3602,    3603,    3090
    1347,    4686,    4687,    4696,    4695,    3602,    3607,    3608,    3603
    1348,    4687,    4688,    4697,    4696,    3607,    3612,    3613,    3608
    1349,    4688,    4689,    4698,    4697,    3612,    3617,    3618,    3613
    1350,    4689,    4690,    4699,    4698,    3617,    3622,    3623,    3618
    1351,    4690,    4691,    4700,    4699,    3622,    3627,    3628,    3623
    1352,    4691,    4692,    4701,    4700,    3627,    3632,    3633,    3628
    1353,    4692,    4693,    4702,    4701,    3632,    3637,    3638,    3633
    1354,    4693,    4694,    4703,    4702,    3637,    3642,    3643,    3638
    1355,    4694,    3544,    3563,    4703,    3642,    3543,    3562,    3643
    1356,    3130,    4695,    4704,    3117,    3090,    3603,    3604,    3091
    1357,    4695,    4696,    4705,    4704,    3603,    3608,    3609,    3604
    1358,    4696,    4697,    4706,    4705,    3608,    3613,    3614,    3609
    1359,    4697,    4698,    4707,    4706,    3613,    3618,    3619,    3614
    1360,    4698,    4699,    4708,    4707,    3618,    3623,    3624,    3619
    1361,    4699,    4700,    4709,    4708,    3623,    3628,    3629,    3624
    1362,    4700,    4701,    4710,    4709,    3628,    3633,    3634,    3629
    1363,    4701,    4702,    4711,    4710,    3633,    3638,    3639,    3634
    1364,    4702,    4703,    4712,    4711,    3638,    3643,    3644,    3639
    1365,    4703,    3563,    3582,    4712,    3643,    3562,    3581,    3644
    1366,    3117,    4704,    3411,    3074,    3091,    3604,    3410,    3073
    1367,    4704,    4705,    3392,    3411,    3604,    3609,    3391,    3410
    1368,    4705,    4706,    3373,    3392,    3609,    3614,    3372,    3391
    1369,    4706,    4707,    3354,    3373,    3614,    3619,    3353,    3372
    1370,    4707,    4708,    3335,    3354,    3619,    3624,    3334,    3353
    1371,    4708,    4709,    3316,    3335,    3624,    3629,    3315,    3334
    1372,    4709,    4710,    3297,    3316,    3629,    3634,    3296,    3315
    1373,    4710,    4711,    3278,    3297,    3634,    3639,    3277,    3296
    1374,    4711,    4712,    3259,    3278,    3639,    3644,    3258,    3277
    1375,    4712,    3582,    3240,    3259,    3644,    3581,    3239,    3258
    1376,    3595,    3596,    3625,    3620,    4713,    4718,    4743,    4742
    1377,    3596,    3597,    3630,    3625,    4718,    4723,    4744,    4743
    1378,    3597,    3598,    3635,    3630,    4723,    4728,    4745,    4744
    1379,    3598,    3599,    3640,    3635,    4728,    4733,    4746,    4745
    1380,    3599,    3486,    3505,    3640,    4733,    3485,    3504,    4746
    1381,    3087,    3600,    3601,    3088,    3092,    4738,    4747,    3097
    1382,    3600,    3605,    3606,    3601,    4738,    4739,    4748,    4747
    1383,    3605,    3610,    3611,    3606,    4739,    4740,    4749,    4748
    1384,    3610,    3615,    3616,    3611,    4740,    4741,    4750,    4749
    1385,    3615,    3620,    3621,    3616,    4741,    4742,    4751,    4750
    1386,    3620,    3625,    3626,    3621,    4742,    4743,    4752,    4751
    1387,    3625,    3630,    3631,    3626,    4743,    4744,    4753,    4752
    1388,    3630,    3635,    3636,    3631,    4744,    4745,    4754,    4753
    1389,    3635,    3640,    3641,    3636,    4745,    4746,    4755,    4754
    1390,    3640,    3505,    3524,    3641,    4746,    3504,    3523,    4755
    1391,    3088,    3601,    3602,    3089,    3097,    4747,    4756,    3102
    1392,    3601,    3606,    3607,    3602,    4747,    4748,    4757,    4756
    1393,    3606,    3611,    3612,    3607,    4748,    4749,    4758,    4757
    1394,    3611,    3616,    3617,    3612,    4749,    4750,    4759,    4758
    1395,    3616,    3621,    3622,    3617,    4750,    4751,    4760,    4759
    1396,    3621,    3626,    3627,    3622,    4751,    4752,    4761,    4760
    1397,    3626,    3631,    3632,    3627,    4752,    4753,    4762,    4761
    1398,    3631,    3636,    3637,    3632,    4753,    4754,    4763,    4762
    1399,    3636,    3641,    3642,    3637,    4754,    4755,    4764,    4763
    1400,    3641,    3524,    3543,    3642,    4755,    3523,    3542,    4764
    1401,    3089,    3602,    3603,    3090,    3102,    4756,    4765,    3107
    1402,    3602,    3607,    3608,    3603,    4756,    4757,    4766,    4765
    1403,    3607,    3612,    3613,    3608,    4757,    4758,    4767,    4766
    1404,    3612,    3617,    3618,    3613,    4758,    4759,    4768,    4767
    1405,    3617,    3622,    3623,    3618,    4759,    4760,    4769,    4768
    1406,    3622,    3627,    3628,    3623,    4760,    4761,    4770,    4769
    1407,    3627,    3632,    3633,    3628,    4761,    4762,    4771,    4770
    1408,    3632,    3637,    3638,    3633,    4762,    4763,    4772,    4771
    1409,    3637,    3642,    3643,    3638,    4763,    4764,    4773,    4772
    1410,    3642,    3543,    3562,    3643,    4764,    3542,    3561,    4773
    1411,    3090,    3603,    3604,    3091,    3107,    4765,    4774,    3112
    1412,    3603,    3608,    3609,    3604,    4765,    4766,    4775,    4774
    1413,    3608,    3613,    3614,    3609,    4766,    4767,    4776,    4775
    1414,    3613,    3618,    3619,    3614,    4767,    4768,    4777,    4776
    1415,    3618,    3623,    3624,    3619,    4768,    4769,    4778,    4777
    1416,    3623,    3628,    3629,    3624,    4769,    4770,    4779,    4778
    1417,    3628,    3633,    3634,    3629,    4770,    4771,    4780,    4779
    1418,    3633,    3638,    3639,    3634,    4771,    4772,    4781,    4780
    1419,    3638,    3643,    3644,    3639,    4772,    4773,    4782,    4781
    1420,    3643,    3562,    3581,    3644,    4773,    3561,    3580,    4782
    1421,    3091,    3604,    3410,    3073,    3112,    4774,    3409,    3072
    1422,    3604,    3609,    3391,    3410,    4774,    4775,    3390,    3409
    1423,    3609,    3614,    3372,    3391,    4775,    4776,    3371,    3390
    1424,    3614,    3619,    3353,    3372,    4776,    4777,    3352,    3371
    1425,    3619,    3624,    3334,    3353,    4777,    4778,    3333,    3352
    1426,    3624,    3629,    3315,    3334,    4778,    4779,    3314,    3333
    1427,    3629,    3634,    3296,    3315,    4779,    4780,    3295,    3314
    1428,    3634,    3639,    3277,    3296,    4780,    4781,    3276,    3295
    1429,    3639,    3644,    3258,    3277,    4781,    4782,    3257,    3276
    1430,    3644,    3581,    3239,    3258,    4782,    3580,    3238,    3257
    1431,    4713,    4718,    4743,    4742,    4714,    4719,    4788,    4787
    1432,    4718,    4723,    4744,    4743,    4719,    4724,    4789,    4788
    1433,    4723,    4728,    4745,    4744,    4724,    4729,    4790,    4789
    1434,    4728,    4733,    4746,    4745,    4729,    4734,    4791,    4790
    1435,    4733,    3485,    3504,    4746,    4734,    3484,    3503,    4791
    1436,    3092,    4738,    4747,    3097,    3093,    4783,    4792,    3098
    1437,    4738,    4739,    4748,    4747,    4783,    4784,    4793,    4792
    1438,    4739,    4740,    4749,    4748,    4784,    4785,    4794,    4793
    1439,    4740,    4741,    4750,    4749,    4785,    4786,    4795,    4794
    1440,    4741,    4742,    4751,    4750,    4786,    4787,    4796,    4795
    1441,    4742,    4743,    4752,    4751,    4787,    4788,    4797,    4796
    1442,    4743,    4744,    4753,    4752,    4788,    4789,    4798,    4797
    1443,    4744,    4745,    4754,    4753,    4789,    4790,    4799,    4798
    1444,    4745,    4746,    4755,    4754,    4790,    4791,    4800,    4799
    1445,    4746,    3504,    3523,    4755,    4791,    3503,    3522,    4800
    1446,    3097,    4747,    4756,    3102,    3098,    4792,    4801,    3103
    1447,    4747,    4748,    4757,    4756,    4792,    4793,    4802,    4801
    1448,    4748,    4749,    4758,    4757,    4793,    4794,    4803,    4802
    1449,    4749,    4750,    4759,    4758,    4794,    4795,    4804,    4803
    1450,    4750,    4751,    4760,    4759,    4795,    4796,    4805,    4804
    1451,    4751,    4752,    4761,    4760,    4796,    4797,    4806,    4805
    1452,    4752,    4753,    4762,    4761,    4797,    4798,    4807,    4806
    1453,    4753,    4754,    4763,    4762,    4798,    4799,    4808,    4807
    1454,    4754,    4755,    4764,    4763,    4799,    4800,    4809,    4808
    1455,    4755,    3523,    3542,    4764,    4800,    3522,    3541,    4809
    1456,    3102,    4756,    4765,    3107,    3103,    4801,    4810,    3108
    1457,    4756,    4757,    4766,    4765,    4801,    4802,    4811,    4810
    1458,    4757,    4758,    4767,    4766,    4802,    4803,    4812,    4811
    1459,    4758,    4759,    4768,    4767,    4803,    4804,    4813,    4812
    1460,    4759,    4760,    4769,    4768,    4804,    4805,    4814,    4813
    1461,    4760,    4761,    4770,    4769,    4805,    4806,    4815,    4814
    1462,    4761,    4762,    4771,    4770,    4806,    4807,    4816,    4815
    1463,    4762,    4763,    4772,    4771,    4807,    4808,    4817,    4816
    1464,    4763,    4764,    4773,    4772,    4808,    4809,    4818,    4817
    1465,    4764,    3542,    3561,    4773,    4809,    3541,    3560,    4818
    1466,    3107,    4765,    4774,    3112,    3108,    4810,    4819,    3113
    1467,    4765,    4766,    4775,    4774,    4810,    4811,    4820,    4819
    1468,    4766,    4767,    4776,    4775,    4811,    4812,    4821,    4820
    1469,    4767,    4768,    4777,    4776,    4812,    4813,    4822,    4821
    1470,    4768,    4769,    4778,    4777,    4813,    4814,    4823,    4822
    1471,    4769,    4770,    4779,    4778,    4814,    4815,    4824,    4823
    1472,    4770,    4771,    4780,    4779,    4815,    4816,    4825,    4824
    1473,    4771,    4772,    4781,    4780,    4816,    4817,    4826,    4825
    1474,    4772,    4773,    4782,    4781,    4817,    4818,    4827,    4826
    1475,    4773,    3561,    3580,    4782,    4818,    3560,    3579,    4827
    1476,    3112,    4774,    3409,    3072,    3113,    4819,    3408,    3071
    1477,    4774,    4775,    3390,    3409,    4819,    4820,    3389,    3408
    1478,    4775,    4776,    3371,    3390,    4820,    4821,    3370,    3389
    1479,    4776,    4777,    3352,    3371,    4821,    4822,    3351,    3370
    1480,    4777,    4778,    3333,    3352,    4822,    4823,    3332,    3351
    1481,    4778,    4779,    3314,    3333,    4823,    4824,    3313,    3332
    1482,    4779,    4780,    3295,    3314,    4824,    4825,    3294,    3313
    1483,    4780,    4781,    3276,    3295,    4825,    4826,    3275,    3294
    1484,    4781,    4782,    3257,    3276,    4826,    4827,    3256,    3275
    1485,    4782,    3580,    3238,    3257,    4827,    3579,    3237,    3256
    1486,    4714,    4719,    4788,    4787,    4715,    4720,    4833,    4832
    1487,    4719,    4724,    4789,    4788,    4720,    4725,    4834,    4833
    1488,    4724,    4729,    4790,    4789,    4725,    4730,    4835,    4834
    1489,    4729,    4734,    4791,    4790,    4730,    4735,    4836,    4835
    1490,    4734,    3484,    3503,    4791,    4735,    3483,    3502,    4836
    1491,    3093,    4783,    4792,    3098,    3094,    4828,    4837,    3099
    1492,    4783,    4784,    4793,    4792,    4828,    4829,    4838,    4837
    1493,    4784,    4785,    4794,    4793,    4829,    4830,    4839,    4838
    1494,    4785,    4786,    4795,    4794,    4830,    4831,    4840,    4839
    1495,    4786,    4787,    4796,    4795,    4831,    4832,    4841,    4840
    1496,    4787,    4788,    4797,    4796,    4832,    4833,    4842,    4841
    1497,    4788,    4789,    4798,    4797,    4833,    4834,    4843,    4842
    1498,    4789,    4790,    4799,    4798,    4834,    4835,    4844,    4843
    1499,    4790,    4791,    4800,    4799,    4835,    4836,    4845,    4844
    1500,    4791,    3503,    3522,    4800,    4836,    3502,    3521,    4845
    1501,    3098,    4792,    4801,    3103,    3099,    4837,    4846,    3104
    1502,    4792,    4793,    4802,    4801,    4837,    4838,    4847,    4846
    1503,    4793,    4794,    4803,    4802,    4838,    4839,    4848,    4847
    1504,    4794,    4795,    4804,    4803,    4839,    4840,    4849,    4848
    1505,    4795,    4796,    4805,    4804,    4840,    4841,    4850,    4849
    1506,    4796,    4797,    4806,    4805,    4841,    4842,    4851,    4850
    1507,    4797,    4798,    4807,    4806,    4842,    4843,    4852,    4851
    1508,    4798,    4799,    4808,    4807,    4843,    4844,    4853,    4852
    1509,    4799,    4800,    4809,    4808,    4844,    4845,    4854,    4853
    1510,    4800,    3522,    3541,    4809,    4845,    3521,    3540,    4854
    1511,    3103,    4801,    4810,    3108,    3104,    4846,    4855,    3109
    1512,    4801,    4802,    4811,    4810,    4846,    4847,    4856,    4855
    1513,    4802,    4803,    4812,    4811,    4847,    4848,    4857,    4856
    1514,    4803,    4804,    4813,    4812,    4848,    4849,    4858,    4857
    1515,    4804,    4805,    4814,    4813,    4849,    4850,    4859,    4858
    1516,    4805,    4806,    4815,    4814,    4850,    4851,    4860,    4859
    1517,    4806,    4807,    4816,    4815,    4851,    4852,    4861,    4860
    1518,    4807,    4808,    4817,    4816,    4852,    4853,    4862,    4861
    1519,    4808,    4809,    4818,    4817,    4853,    4854,    4863,    4862
    1520,    4809,    3541,    3560,    4818,    4854,    3540,    3559,    4863
    1521,    3108,    4810,    4819,    3113,    3109,    4855,    4864,    3114
    1522,    4810,    4811,    4820,    4819,    4855,    4856,    4865,    4864
    1523,    4811,    4812,    4821,    4820,    4856,    4857,    4866,    4865
    1524,    4812,    4813,    4822,    4821,    4857,    4858,    4867,    4866
    1525,    4813,    4814,    4823,    4822,    4858,    4859,    4868,    4867
    1526,    4814,    4815,    4824,    4823,    4859,    4860,    4869,    4868
    1527,    4815,    4816,    4825,    4824,    4860,    4861,    4870,    4869
    1528,    4816,    4817,    4826,    4825,    4861,    4862,    4871,    4870
    1529,    4817,    4818,    4827,    4826,    4862,    4863,    4872,    4871
    1530,    4818,    3560,    3579,    4827,    4863,    3559,    3578,    4872
    1531,    3113,    4819,    3408,    3071,    3114,    4864,    3407,    3070
    1532,    4819,    4820,    3389,    3408,    4864,    4865,    3388,    3407
    1533,    4820,    4821,    3370,    3389,    4865,    4866,    3369,    3388
    1534,    4821,    4822,    3351,    3370,    4866,    4867,    3350,    3369
    1535,    4822,    4823,    3332,    3351,    4867,    4868,    3331,    3350
    1536,    4823,    4824,    3313,    3332,    4868,    4869,    3312,    3331
    1537,    4824,    4825,    3294,    3313,    4869,    4870,    3293,    3312
    1538,    4825,    4826,    3275,    3294,    4870,    4871,    3274,    3293
    1539,    4826,    4827,    3256,    3275,    4871,    4872,    3255,    3274
    1540,    4827,    3579,    3237,    3256,    4872,    3578,    3236,    3255
    1541,    4715,    4720,    4833,    4832,    4716,    4721,    4878,    4877
    1542,    4720,    4725,    4834,    4833,    4721,    4726,    4879,    4878
    1543,    4725,    4730,    4835,    4834,    4726,    4731,    4880,    4879
    1544,    4730,    4735,    4836,    4835,    4731,    4736,    4881,    4880
    1545,    4735,    3483,    3502,    4836,    4736,    3482,    3501,    4881
    1546,    3094,    4828,    4837,    3099,    3095,    4873,    4882,    3100
    1547,    4828,    4829,    4838,    4837,    4873,    4874,    4883,    4882
    1548,    4829,    4830,    4839,    4838,    4874,    4875,    4884,    4883
    1549,    4830,    4831,    4840,    4839,    4875,    4876,    4885,    4884
    1550,    4831,    4832,    4841,    4840,    4876,    4877,    4886,    4885
    1551,    4832,    4833,    4842,    4841,    4877,    4878,    4887,    4886
    1552,    4833,    4834,    4843,    4842,    4878,    4879,    4888,    4887
    1553,    4834,    4835,    4844,    4843,    4879,    4880,    4889,    4888
    1554,    4835,    4836,    4845,    4844,    4880,    4881,    4890,    4889
    1555,    4836,    3502,    3521,    4845,    4881,    3501,    3520,    4890
    1556,    3099,    4837,    4846,    3104,    3100,    4882,    4891,    3105
    1557,    4837,    4838,    4847,    4846,    4882,    4883,    4892,    4891
    1558,    4838,    4839,    4848,    4847,    4883,    4884,    4893,    4892
    1559,    4839,    4840,    4849,    4848,    4884,    4885,    4894,    4893
    1560,    4840,    4841,    4850,    4849,    4885,    4886,    4895,    4894
    1561,    4841,    4842,    4851,    4850,    4886,    4887,    4896,    4895
    1562,    4842,    4843,    4852,    4851,    4887,    4888,    4897,    4896
    1563,    4843,    4844,    4853,    4852,    4888,    4889,    4898,    4897
    1564,    4844,    4845,    4854,    4853,    4889,    4890,    4899,    4898
    1565,    4845,    3521,    3540,    4854,    4890,    3520,    3539,    4899
    1566,    3104,    4846,    4855,    3109,    3105,    4891,    4900,    3110
    1567,    4846,    4847,    4856,    4855,    4891,    4892,    4901,    4900
    1568,    4847,    4848,    4857,    4856,    4892,    4893,    4902,    4901
    1569,    4848,    4849,    4858,    4857,    4893,    4894,    4903,    4902
    1570,    4849,    4850,    4859,    4858,    4894,    4895,    4904,    4903
    1571,    4850,    4851,    4860,    4859,    4895,    4896,    4905,    4904
    1572,    4851,    4852,    4861,    4860,    4896,    4897,    4906,    4905
    1573,    4852,    4853,    4862,    4861,    4897,    4898,    4907,    4906
    1574,    4853,    4854,    4863,    4862,    4898,    4899,    4908,    4907
    1575,    4854,    3540,    3559,    4863,    4899,    3539,    3558,    4908
    1576,    3109,    4855,    4864,    3114,    3110,    4900,    4909,    3115
    1577,    4855,    4856,    4865,    4864,    4900,    4901,    4910,    4909
    1578,    4856,    4857,    4866,    4865,    4901,    4902,    4911,    4910
    1579,    4857,    4858,    4867,    4866,    4902,    4903,    4912,    4911
    1580,    4858,    4859,    4868,    4867,    4903,    4904,    4913,    4912
    1581,    4859,    4860,    4869,    4868,    4904,    4905,    4914,    4913
    1582,    4860,    4861,    4870,    4869,    4905,    4906,    4915,    4914
    1583,    4861,    4862,    4871,    4870,    4906,    4907,    4916,    4915
    1584,    4862,    4863,    4872,    4871,    4907,    4908,    4917,    4916
    1585,    4863,    3559,    3578,    4872,    4908,    3558,    3577,    4917
    1586,    3114,    4864,    3407,    3070,    3115,    4909,    3406,    3069
    1587,    4864,    4865,    3388,    3407,    4909,    4910,    3387,    3406
    1588,    4865,    4866,    3369,    3388,    4910,    4911,    3368,    3387
    1589,    4866,    4867,    3350,    3369,    4911,    4912,    3349,    3368
    1590,    4867,    4868,    3331,    3350,    4912,    4913,    3330,    3349
    1591,    4868,    4869,    3312,    3331,    4913,    4914,    3311,    3330
    1592,    4869,    4870,    3293,    3312,    4914,    4915,    3292,    3311
    1593,    4870,    4871,    3274,    3293,    4915,    4916,    3273,    3292
    1594,    4871,    4872,    3255,    3274,    4916,    4917,    3254,    3273
    1595,    4872,    3578,    3236,    3255,    4917,    3577,    3235,    3254
    1596,    4716,    4721,    4878,    4877,    4717,    4722,    4923,    4922
    1597,    4721,    4726,    4879,    4878,    4722,    4727,    4924,    4923
    1598,    4726,    4731,    4880,    4879,    4727,    4732,    4925,    4924
    1599,    4731,    4736,    4881,    4880,    4732,    4737,    4926,    4925
    1600,    4736,    3482,    3501,    4881,    4737,    3481,    3500,    4926
    1601,    3095,    4873,    4882,    3100,    3096,    4918,    4927,    3101
    1602,    4873,    4874,    4883,    4882,    4918,    4919,    4928,    4927
    1603,    4874,    4875,    4884,    4883,    4919,    4920,    4929,    4928
    1604,    4875,    4876,    4885,    4884,    4920,    4921,    4930,    4929
    1605,    4876,    4877,    4886,    4885,    4921,    4922,    4931,    4930
    1606,    4877,    4878,    4887,    4886,    4922,    4923,    4932,    4931
    1607,    4878,    4879,    4888,    4887,    4923,    4924,    4933,    4932
    1608,    4879,    4880,    4889,    4888,    4924,    4925,    4934,    4933
    1609,    4880,    4881,    4890,    4889,    4925,    4926,    4935,    4934
    1610,    4881,    3501,    3520,    4890,    4926,    3500,    3519,    4935
    1611,    3100,    4882,    4891,    3105,    3101,    4927,    4936,    3106
    1612,    4882,    4883,    4892,    4891,    4927,    4928,    4937,    4936
    1613,    4883,    4884,    4893,    4892,    4928,    4929,    4938,    4937
    1614,    4884,    4885,    4894,    4893,    4929,    4930,    4939,    4938
    1615,    4885,    4886,    4895,    4894,    4930,    4931,    4940,    4939
    1616,    4886,    4887,    4896,    4895,    4931,    4932,    4941,    4940
    1617,    4887,    4888,    4897,    4896,    4932,    4933,    4942,    4941
    1618,    4888,    4889,    4898,    4897,    4933,    4934,    4943,    4942
    1619,    4889,    4890,    4899,    4898,    4934,    4935,    4944,    4943
    1620,    4890,    3520,    3539,    4899,    4935,    3519,    3538,    4944
    1621,    3105,    4891,    4900,    3110,    3106,    4936,    4945,    3111
    1622,    4891,    4892,    4901,    4900,    4936,    4937,    4946,    4945
    1623,    4892,    4893,    4902,    4901,    4937,    4938,    4947,    4946
    1624,    4893,    4894,    4903,    4902,    4938,    4939,    4948,    4947
    1625,    4894,    4895,    4904,    4903,    4939,    4940,    4949,    4948
    1626,    4895,    4896,    4905,    4904,    4940,    4941,    4950,    4949
    1627,    4896,    4897,    4906,    4905,    4941,    4942,    4951,    4950
    1628,    4897,    4898,    4907,    4906,    4942,    4943,    4952,    4951
    1629,    4898,    4899,    4908,    4907,    4943,    4944,    4953,    4952
    1630,    4899,    3539,    3558,    4908,    4944,    3538,    3557,    4953
    1631,    3110,    4900,    4909,    3115,    3111,    4945,    4954,    3116
    1632,    4900,    4901,    4910,    4909,    4945,    4946,    4955,    4954
    1633,    4901,    4902,    4911,    4910,    4946,    4947,    4956,    4955
    1634,    4902,    4903,    4912,    4911,    4947,    4948,    4957,    4956
    1635,    4903,    4904,    4913,    4912,    4948,    4949,    4958,    4957
    1636,    4904,    4905,    4914,    4913,    4949,    4950,    4959,    4958
    1637,    4905,    4906,    4915,    4914,    4950,    4951,    4960,    4959
    1638,    4906,    4907,    4916,    4915,    4951,    4952,    4961,    4960
    1639,    4907,    4908,    4917,    4916,    4952,    4953,    4962,    4961
    1640,    4908,    3558,    3577,    4917,    4953,    3557,    3576,    4962
    1641,    3115,    4909,    3406,    3069,    3116,    4954,    3405,    3068
    1642,    4909,    4910,    3387,    3406,    4954,    4955,    3386,    3405
    1643,    4910,    4911,    3368,    3387,    4955,    4956,    3367,    3386
    1644,    4911,    4912,    3349,    3368,    4956,    4957,    3348,    3367
    1645,    4912,    4913,    3330,    3349,    4957,    4958,    3329,    3348
    1646,    4913,    4914,    3311,    3330,    4958,    4959,    3310,    3329
    1647,    4914,    4915,    3292,    3311,    4959,    4960,    3291,    3310
    1648,    4915,    4916,    3273,    3292,    4960,    4961,    3272,    3291
    1649,    4916,    4917,    3254,    3273,    4961,    4962,    3253,    3272
    1650,    4917,    3577,    3235,    3254,    4962,    3576,    3234,    3253
    1651,    4717,    4722,    4923,    4922,    2723,    2724,    2729,    2728
    1652,    4722,    4727,    4924,    4923,    2724,    2725,    2730,    2729
    1653,    4727,    4732,    4925,    4924,    2725,    2726,    2731,    2730
    1654,    4732,    4737,    4926,    4925,    2726,    2727,    2732,    2731
    1655,    4737,    3481,    3500,    4926,    2727,    2682,    2683,    2732
    1656,    3096,    4918,    4927,    3101,    2702,    2767,    2764,    2701
    1657,    4918,    4919,    4928,    4927,    2767,    2766,    2763,    2764
    1658,    4919,    4920,    4929,    4928,    2766,    2765,    2762,    2763
    1659,    4920,    4921,    4930,    4929,    2765,    2703,    2704,    2762
    1660,    4921,    4922,    4931,    4930,    2703,    2728,    2733,    2704
    1661,    4922,    4923,    4932,    4931,    2728,    2729,    2734,    2733
    1662,    4923,    4924,    4933,    4932,    2729,    2730,    2735,    2734
    1663,    4924,    4925,    4934,    4933,    2730,    2731,    2736,    2735
    1664,    4925,    4926,    4935,    4934,    2731,    2732,    2737,    2736
    1665,    4926,    3500,    3519,    4935,    2732,    2683,    2684,    2737
    1666,    3101,    4927,    4936,    3106,    2701,    2764,    2761,    2700
    1667,    4927,    4928,    4937,    4936,    2764,    2763,    2760,    2761
    1668,    4928,    4929,    4938,    4937,    2763,    2762,    2759,    2760
    1669,    4929,    4930,    4939,    4938,    2762,    2704,    2705,    2759
    1670,    4930,    4931,    4940,    4939,    2704,    2733,    2738,    2705
    1671,    4931,    4932,    4941,    4940,    2733,    2734,    2739,    2738
    1672,    4932,    4933,    4942,    4941,    2734,    2735,    2740,    2739
    1673,    4933,    4934,    4943,    4942,    2735,    2736,    2741,    2740
    1674,    4934,    4935,    4944,    4943,    2736,    2737,    2742,    2741
    1675,    4935,    3519,    3538,    4944,    2737,    2684,    2685,    2742
    1676,    3106,    4936,    4945,    3111,    2700,    2761,    2758,    2699
    1677,    4936,    4937,    4946,    4945,    2761,    2760,    2757,    2758
    1678,    4937,    4938,    4947,    4946,    2760,    2759,    2756,    2757
    1679,    4938,    4939,    4948,    4947,    2759,    2705,    2706,    2756
    1680,    4939,    4940,    4949,    4948,    2705,    2738,    2743,    2706
    1681,    4940,    4941,    4950,    4949,    2738,    2739,    2744,    2743
    1682,    4941,    4942,    4951,    4950,    2739,    2740,    2745,    2744
    1683,    4942,    4943,    4952,    4951,    2740,    2741,    2746,    2745
    1684,    4943,    4944,    4953,    4952,    2741,    2742,    2747,    2746
    1685,    4944,    3538,    3557,    4953,    2742,    2685,    2686,    2747
    1686,    3111,    4945,    4954,    3116,    2699,    2758,    2755,    2698
    1687,    4945,    4946,    4955,    4954,    2758,    2757,    2754,    2755
    1688,    4946,    4947,    4956,    4955,    2757,    2756,    2753,    2754
    1689,    4947,    4948,    4957,    4956,    2756,    2706,    2707,    2753
    1690,    4948,    4949,    4958,    4957,    2706,    2743,    2748,    2707
    1691,    4949,    4950,    4959,    4958,    2743,    2744,    2749,    2748
    1692,    4950,    4951,    4960,    4959,    2744,    2745,    2750,    2749
    1693,    4951,    4952,    4961,    4960,    2745,    2746,    2751,    2750
    1694,    4952,    4953,    4962,    4961,    2746,    2747,    2752,    2751
    1695,    4953,    3557,    3576,    4962,    2747,    2686,    2687,    2752
    1696,    3116,    4954,    3405,    3068,    2698,    2755,    2697,    2688
    1697,    4954,    4955,    3386,    3405,    2755,    2754,    2696,    2697
    1698,    4955,    4956,    3367,    3386,    2754,    2753,    2695,    2696
    1699,    4956,    4957,    3348,    3367,    2753,    2707,    2694,    2695
    1700,    4957,    4958,    3329,    3348,    2707,    2748,    2693,    2694
    1701,    4958,    4959,    3310,    3329,    2748,    2749,    2692,    2693
    1702,    4959,    4960,    3291,    3310,    2749,    2750,    2691,    2692
    1703,    4960,    4961,    3272,    3291,    2750,    2751,    2690,    2691
    1704,    4961,    4962,    3253,    3272,    2751,    2752,    2689,    2690
    1705,    4962,    3576,    3234,    3253,    2752,    2687,    2678,    2689
    1706,    2811,    2812,    3656,    3659,    2953,    2948,    4964,    4963
    1707,    2812,    2813,    3653,    3656,    2948,    2943,    4965,    4964
    1708,    2813,    2814,    3650,    3653,    2943,    2938,    4966,    4965
    1709,    2814,    2815,    3647,    3650,    2938,    2933,    4967,    4966
    1710,    2815,    2797,    3429,    3647,    2933,    2796,    3428,    4967
    1711,    3659,    3656,    3655,    3658,    4963,    4964,    4969,    4968
    1712,    3656,    3653,    3652,    3655,    4964,    4965,    4970,    4969
    1713,    3653,    3650,    3649,    3652,    4965,    4966,    4971,    4970
    1714,    3650,    3647,    3646,    3649,    4966,    4967,    4972,    4971
    1715,    3647,    3429,    3448,    3646,    4967,    3428,    3447,    4972
    1716,    3658,    3655,    3654,    3657,    4968,    4969,    4974,    4973
    1717,    3655,    3652,    3651,    3654,    4969,    4970,    4975,    4974
    1718,    3652,    3649,    3648,    3651,    4970,    4971,    4976,    4975
    1719,    3649,    3646,    3645,    3648,    4971,    4972,    4977,    4976
    1720,    3646,    3448,    3467,    3645,    4972,    3447,    3466,    4977
    1721,    3657,    3654,    3596,    3595,    4973,    4974,    4718,    4713
    1722,    3654,    3651,    3597,    3596,    4974,    4975,    4723,    4718
    1723,    3651,    3648,    3598,    3597,    4975,    4976,    4728,    4723
    1724,    3648,    3645,    3599,    3598,    4976,    4977,    4733,    4728
    1725,    3645,    3467,    3486,    3599,    4977,    3466,    3485,    4733
    1726,    2953,    2948,    4964,    4963,    2954,    2949,    4979,    4978
    1727,    2948,    2943,    4965,    4964,    2949,    2944,    4980,    4979
    1728,    2943,    2938,    4966,    4965,    2944,    2939,    4981,    4980
    1729,    2938,    2933,    4967,    4966,    2939,    2934,    4982,    4981
    1730,    2933,    2796,    3428,    4967,    2934,    2795,    3427,    4982
    1731,    4963,    4964,    4969,    4968,    4978,    4979,    4984,    4983
    1732,    4964,    4965,    4970,    4969,    4979,    4980,    4985,    4984
    1733,    4965,    4966,    4971,    4970,    4980,    4981,    4986,    4985
    1734,    4966,    4967,    4972,    4971,    4981,    4982,    4987,    4986
    1735,    4967,    3428,    3447,    4972,    4982,    3427,    3446,    4987
    1736,    4968,    4969,    4974,    4973,    4983,    4984,    4989,    4988
    1737,    4969,    4970,    4975,    4974,    4984,    4985,    4990,    4989
    1738,    4970,    4971,    4976,    4975,    4985,    4986,    4991,    4990
    1739,    4971,    4972,    4977,    4976,    4986,    4987,    4992,    4991
    1740,    4972,    3447,    3466,    4977,    4987,    3446,    3465,    4992
    1741,    4973,    4974,    4718,    4713,    4988,    4989,    4719,    4714
    1742,    4974,    4975,    4723,    4718,    4989,    4990,    4724,    4719
    1743,    4975,    4976,    4728,    4723,    4990,    4991,    4729,    4724
    1744,    4976,    4977,    4733,    4728,    4991,    4992,    4734,    4729
    1745,    4977,    3466,    3485,    4733,    4992,    3465,    3484,    4734
    1746,    2954,    2949,    4979,    4978,    2955,    2950,    4994,    4993
    1747,    2949,    2944,    4980,    4979,    2950,    2945,    4995,    4994
    1748,    2944,    2939,    4981,    4980,    2945,    2940,    4996,    4995
    1749,    2939,    2934,    4982,    4981,    2940,    2935,    4997,    4996
    1750,    2934,    2795,    3427,    4982,    2935,    2794,    3426,    4997
    1751,    4978,    4979,    4984,    4983,    4993,    4994,    4999,    4998
    1752,    4979,    4980,    4985,    4984,    4994,    4995,    5000,    4999
    1753,    4980,    4981,    4986,    4985,    4995,    4996,    5001,    5000
    1754,    4981,    4982,    4987,    4986,    4996,    4997,    5002,    5001
    1755,    4982,    3427,    3446,    4987,    4997,    3426,    3445,    5002
    1756,    4983,    4984,    4989,    4988,    4998,    4999,    5004,    5003
    1757,    4984,    4985,    4990,    4989,    4999,    5000,    5005,    5004
    1758,    4985,    4986,    4991,    4990,    5000,    5001,    5006,    5005
    1759,    4986,    4987,    4992,    4991,    5001,    5002,    5007,    5006
    1760,    4987,    3446,    3465,    4992,    5002,    3445,    3464,    5007
    1761,    4988,    4989,    4719,    4714,    5003,    5004,    4720,    4715
    1762,    4989,    4990,    4724,    4719,    5004,    5005,    4725,    4720
    1763,    4990,    4991,    4729,    4724,    5005,    5006,    4730,    4725
    1764,    4991,    4992,    4734,    4729,    5006,    5007,    4735,    4730
    1765,    4992,    3465,    3484,    4734,    5007,    3464,    3483,    4735
    1766,    2955,    2950,    4994,    4993,    2956,    2951,    5009,    5008
    1767,    2950,    2945,    4995,    4994,    2951,    2946,    5010,    5009
    1768,    2945,    2940,    4996,    4995,    2946,    2941,    5011,    5010
    1769,    2940,    2935,    4997,    4996,    2941,    2936,    5012,    5011
    1770,    2935,    2794,    3426,    4997,    2936,    2793,    3425,    5012
    1771,    4993,    4994,    4999,    4998,    5008,    5009,    5014,    5013
    1772,    4994,    4995,    5000,    4999,    5009,    5010,    5015,    5014
    1773,    4995,    4996,    5001,    5000,    5010,    5011,    5016,    5015
    1774,    4996,    4997,    5002,    5001,    5011,    5012,    5017,    5016
    1775,    4997,    3426,    3445,    5002,    5012,    3425,    3444,    5017
    1776,    4998,    4999,    5004,    5003,    5013,    5014,    5019,    5018
    1777,    4999,    5000,    5005,    5004,    5014,    5015,    5020,    5019
    1778,    5000,    5001,    5006,    5005,    5015,    5016,    5021,    5020
    1779,    5001,    5002,    5007,    5006,    5016,    5017,    5022,    5021
    1780,    5002,    3445,    3464,    5007,    5017,    3444,    3463,    5022
    1781,    5003,    5004,    4720,    4715,    5018,    5019,    4721,    4716
    1782,    5004,    5005,    4725,    4720,    5019,    5020,    4726,    4721
    1783,    5005,    5006,    4730,    4725,    5020,    5021,    4731,    4726
    1784,    5006,    5007,    4735,    4730,    5021,    5022,    4736,    4731
    1785,    5007,    3464,    3483,    4735,    5022,    3463,    3482,    4736
    1786,    2956,    2951,    5009,    5008,    2957,    2952,    5024,    5023
    1787,    2951,    2946,    5010,    5009,    2952,    2947,    5025,    5024
    1788,    2946,    2941,    5011,    5010,    2947,    2942,    5026,    5025
    1789,    2941,    2936,    5012,    5011,    2942,    2937,    5027,    5026
    1790,    2936,    2793,    3425,    5012,    2937,    2792,    3424,    5027
    1791,    5008,    5009,    5014,    5013,    5023,    5024,    5029,    5028
    1792,    5009,    5010,    5015,    5014,    5024,    5025,    5030,    5029
    1793,    5010,    5011,    5016,    5015,    5025,    5026,    5031,    5030
    1794,    5011,    5012,    5017,    5016,    5026,    5027,    5032,    5031
    1795,    5012,    3425,    3444,    5017,    5027,    3424,    3443,    5032
    1796,    5013,    5014,    5019,    5018,    5028,    5029,    5034,    5033
    1797,    5014,    5015,    5020,    5019,    5029,    5030,    5035,    5034
    1798,    5015,    5016,    5021,    5020,    5030,    5031,    5036,    5035
    1799,    5016,    5017,    5022,    5021,    5031,    5032,    5037,    5036
    1800,    5017,    3444,    3463,    5022,    5032,    3443,    3462,    5037
    1801,    5018,    5019,    4721,    4716,    5033,    5034,    4722,    4717
    1802,    5019,    5020,    4726,    4721,    5034,    5035,    4727,    4722
    1803,    5020,    5021,    4731,    4726,    5035,    5036,    4732,    4727
    1804,    5021,    5022,    4736,    4731,    5036,    5037,    4737,    4732
    1805,    5022,    3463,    3482,    4736,    5037,    3462,    3481,    4737
    1806,    2957,    2952,    5024,    5023,    2673,    2674,    2709,    2708
    1807,    2952,    2947,    5025,    5024,    2674,    2675,    2710,    2709
    1808,    2947,    2942,    5026,    5025,    2675,    2676,    2711,    2710
    1809,    2942,    2937,    5027,    5026,    2676,    2677,    2712,    2711
    1810,    2937,    2792,    3424,    5027,    2677,    2672,    2679,    2712
    1811,    5023,    5024,    5029,    5028,    2708,    2709,    2714,    2713
    1812,    5024,    5025,    5030,    5029,    2709,    2710,    2715,    2714
    1813,    5025,    5026,    5031,    5030,    2710,    2711,    2716,    2715
    1814,    5026,    5027,    5032,    5031,    2711,    2712,    2717,    2716
    1815,    5027,    3424,    3443,    5032,    2712,    2679,    2680,    2717
    1816,    5028,    5029,    5034,    5033,    2713,    2714,    2719,    2718
    1817,    5029,    5030,    5035,    5034,    2714,    2715,    2720,    2719
    1818,    5030,    5031,    5036,    5035,    2715,    2716,    2721,    2720
    1819,    5031,    5032,    5037,    5036,    2716,    2717,    2722,    2721
    1820,    5032,    3443,    3462,    5037,    2717,    2680,    2681,    2722
    1821,    5033,    5034,    4722,    4717,    2718,    2719,    2724,    2723
    1822,    5034,    5035,    4727,    4722,    2719,    2720,    2725,    2724
    1823,    5035,    5036,    4732,    4727,    2720,    2721,    2726,    2725
    1824,    5036,    5037,    4737,    4732,    2721,    2722,    2727,    2726
    1825,    5037,    3462,    3481,    4737,    2722,    2681,    2682,    2727
    1826,    5040,    5042,    5044,    5043,    2593,    5039,    5041,    5038
    1827,    5042,    4663,    4672,    5044,    5039,    3595,    3620,    5041
    1828,    5043,    5044,    4672,    4671,    5038,    5041,    3620,    3615
    1829,    4662,    4663,    4672,    4671,    5040,    5042,    5044,    5043
    1830,    5040,    5042,    5039,    2593,    5151,    5154,    5156,    5157
    1831,    5151,    5154,    5156,    5157,    5152,    5153,    5155,    5158
    1832,    5152,    5153,    5155,    5158,    5055,    5056,    5054,    2595
    1833,    5199,    4973,    4713,    5200,    5201,    4988,    4714,    5202
    1834,    4650,    4651,    4660,    4659,    5206,    5204,    5203,    5205
    1835,    3195,    4650,    4659,    3182,    5208,    5206,    5205,    5207
    1836,    5209,    5018,    4716,    5210,    5211,    5033,    4717,    5212
    1837,    5211,    5033,    4717,    5212,    5213,    2718,    2723,    5214
    1838,    5215,    5003,    4715,    5216,    5209,    5018,    4716,    5210
    1839,    5201,    4988,    4714,    5202,    5215,    5003,    4715,    5216
    1840,    5217,    3657,    3595,    5218,    5199,    4973,    4713,    5200
    1841,    5056,    4654,    5219,    5153,    5054,    3657,    5217,    5155
    1842,    5153,    5219,    5220,    5154,    5155,    5217,    5218,    5156
    1843,    5154,    5220,    4663,    5042,    5156,    5218,    3595,    5039
    1844,    5219,    4654,    4663,    5220,    5217,    3657,    3595,    5218
    1845,    4651,    4652,    4661,    4660,    5204,    5221,    5222,    5203
    1846,    4652,    4653,    4662,    4661,    5221,    5224,    5223,    5222
    1847,    4653,    4654,    5219,    5224,    5055,    5056,    5153,    5152
    1848,    5224,    5219,    5220,    5223,    5152,    5153,    5154,    5151
    1849,    5223,    5220,    4663,    4662,    5151,    5154,    5042,    5040
    1850,    4653,    4654,    4663,    4662,    5224,    5219,    5220,    5223
    1851,    5067,    5068,    5066,    2601,    5225,    5228,    5230,    5231
    1852,    5225,    5228,    5230,    5231,    5226,    5227,    5229,    5232
    1853,    5226,    5227,    5229,    5232,    5040,    5043,    5038,    2593
    1854,    5162,    5163,    5164,    5161,    5237,    5239,    5241,    5243
    1855,    5237,    5239,    5241,    5243,    5238,    5240,    5242,    5244
    1856,    5238,    5240,    5242,    5244,    5151,    5157,    5158,    5152
    1857,    5161,    5164,    2611,    5102,    5243,    5241,    5250,    5248
    1858,    5243,    5241,    5250,    5248,    5244,    5242,    5249,    5247
    1859,    5244,    5242,    5249,    5247,    5152,    5158,    2595,    5055
    1860,    5067,    2601,    5163,    5162,    5225,    5231,    5239,    5237
    1861,    5225,    5231,    5239,    5237,    5226,    5232,    5240,    5238
    1862,    5226,    5232,    5240,    5238,    5040,    2593,    5157,    5151
    1863,    5221,    5283,    5281,    5222,    5161,    5243,    5237,    5162
    1864,    5283,    5284,    5282,    5281,    5243,    5244,    5238,    5237
    1865,    5284,    5224,    5223,    5282,    5244,    5152,    5151,    5238
    1866,    5221,    5224,    5223,    5222,    5283,    5284,    5282,    5281
    1867,    4643,    4644,    4653,    4652,    5285,    5286,    5288,    5287
    1868,    2842,    2855,    4635,    4634,    5289,    5290,    5292,    5291
    1869,    5294,    5293,    3615,    3610,    5296,    5295,    4741,    4740
    1870,    5298,    5297,    4786,    4785,    5300,    5299,    4831,    4830
    1871,    5302,    5301,    4876,    4875,    5304,    5303,    4921,    4920
    1872,    5304,    5303,    4921,    4920,    5306,    5305,    2703,    2765
    1873,    5300,    5299,    4831,    4830,    5302,    5301,    4876,    4875
    1874,    5296,    5295,    4741,    4740,    5298,    5297,    4786,    4785
    1875,    5227,    5043,    4671,    5307,    5229,    5038,    3615,    5293
    1876,    5228,    5227,    5307,    5308,    5230,    5229,    5293,    5294
    1877,    5068,    5228,    5308,    4670,    5066,    5230,    5294,    3610
    1878,    5308,    5307,    4671,    4670,    5294,    5293,    3615,    3610
    1879,    4634,    4635,    4644,    4643,    5291,    5292,    5286,    5285
    1880,    4652,    5287,    5283,    5221,    5102,    5248,    5243,    5161
    1881,    5287,    5288,    5284,    5283,    5248,    5247,    5244,    5243
    1882,    5288,    4653,    5224,    5284,    5247,    5055,    5152,    5244
    1883,    4652,    4653,    5224,    5221,    5287,    5288,    5284,    5283
    1884,    5222,    5281,    5309,    4661,    5162,    5237,    5225,    5067
    1885,    5281,    5282,    5310,    5309,    5237,    5238,    5226,    5225
    1886,    5282,    5223,    4662,    5310,    5238,    5151,    5040,    5226
    1887,    5222,    5223,    4662,    4661,    5281,    5282,    5310,    5309
    1888,    4661,    5309,    5308,    4670,    5067,    5225,    5228,    5068
    1889,    5309,    5310,    5307,    5308,    5225,    5226,    5227,    5228
    1890,    5310,    4662,    4671,    5307,    5226,    5040,    5043,    5227
    1891,    4661,    4662,    4671,    4670,    5309,    5310,    5307,    5308
    1892,    5168,    5170,    5169,    5167,    5312,    5314,    5316,    5318
    1893,    5312,    5314,    5316,    5318,    5311,    5313,    5315,    5317
    1894,    5311,    5313,    5315,    5317,    5157,    5156,    5155,    5158
    1895,    2623,    5069,    5170,    5168,    5331,    5334,    5314,    5312
    1896,    5331,    5334,    5314,    5312,    5332,    5333,    5313,    5311
    1897,    5332,    5333,    5313,    5311,    2593,    5039,    5156,    5157
    1898,    5235,    5233,    5070,    2623,    5336,    5338,    5340,    5331
    1899,    5336,    5338,    5340,    5331,    5335,    5337,    5339,    5332
    1900,    5335,    5337,    5339,    5332,    5232,    5229,    5038,    2593
    1901,    5236,    5234,    5233,    5235,    5342,    5344,    5338,    5336
    1902,    5342,    5344,    5338,    5336,    5341,    5343,    5337,    5335
    1903,    5341,    5343,    5337,    5335,    5231,    5230,    5229,    5232
    1904,    2633,    5106,    5234,    5236,    5353,    5356,    5344,    5342
    1905,    5353,    5356,    5344,    5342,    5354,    5355,    5343,    5341
    1906,    5354,    5355,    5343,    5341,    2601,    5066,    5230,    5231
    1907,    5069,    2623,    5070,    5071,    5334,    5331,    5340,    5365
    1908,    5334,    5331,    5340,    5365,    5333,    5332,    5339,    5366
    1909,    5333,    5332,    5339,    5366,    5039,    2593,    5038,    5041
    1910,    5167,    5169,    5130,    2667,    5318,    5316,    5325,    5323
    1911,    5318,    5316,    5325,    5323,    5317,    5315,    5326,    5324
    1912,    5317,    5315,    5326,    5324,    5158,    5155,    5054,    2595
    1913,    5368,    3658,    3657,    5370,    5367,    4968,    4973,    5369
    1914,    5156,    5218,    3595,    5039,    5313,    5373,    5371,    5333
    1915,    5313,    5373,    5371,    5333,    5314,    5374,    5372,    5334
    1916,    5314,    5374,    5372,    5334,    5170,    5200,    4713,    5069
    1917,    5373,    5218,    3595,    5371,    5374,    5200,    4713,    5372
    1918,    5229,    5038,    3615,    5293,    5337,    5339,    5377,    5375
    1919,    5337,    5339,    5377,    5375,    5338,    5340,    5378,    5376
    1920,    5338,    5340,    5378,    5376,    5233,    5070,    4741,    5295
    1921,    5375,    5377,    3615,    5293,    5376,    5378,    4741,    5295
    1922,    5379,    2811,    3659,    5381,    5380,    2953,    4963,    5382
    1923,    5386,    5384,    3600,    3087,    5385,    5383,    4738,    3092
    1924,    5384,    5388,    3605,    3600,    5383,    5387,    4739,    4738
    1925,    5388,    5389,    3610,    3605,    5387,    5390,    4740,    4739
    1926,    5066,    5230,    5294,    3610,    5355,    5343,    5391,    5389
    1927,    5355,    5343,    5391,    5389,    5356,    5344,    5392,    5390
    1928,    5356,    5344,    5392,    5390,    5106,    5234,    5296,    4740
    1929,    5389,    5391,    5294,    3610,    5390,    5392,    5296,    4740
    1930,    5230,    5229,    5293,    5294,    5343,    5337,    5375,    5391
    1931,    5343,    5337,    5375,    5391,    5344,    5338,    5376,    5392
    1932,    5344,    5338,    5376,    5392,    5234,    5233,    5295,    5296
    1933,    5391,    5375,    5293,    5294,    5392,    5376,    5295,    5296
    1934,    5340,    5365,    5393,    5378,    5070,    5071,    4742,    4741
    1935,    5339,    5366,    5394,    5377,    5340,    5365,    5393,    5378
    1936,    5038,    5041,    3620,    3615,    5339,    5366,    5394,    5377
    1937,    5377,    5394,    3620,    3615,    5378,    5393,    4742,    4741
    1938,    5039,    3595,    3620,    5041,    5333,    5371,    5394,    5366
    1939,    5333,    5371,    5394,    5366,    5334,    5372,    5393,    5365
    1940,    5334,    5372,    5393,    5365,    5069,    4713,    4742,    5071
    1941,    5371,    3595,    3620,    5394,    5372,    4713,    4742,    5393
    1942,    5381,    3659,    3658,    5368,    5382,    4963,    4968,    5367
    1943,    5054,    3657,    5217,    5155,    5326,    5370,    5395,    5315
    1944,    5326,    5370,    5395,    5315,    5325,    5369,    5396,    5316
    1945,    5325,    5369,    5396,    5316,    5130,    4973,    5199,    5169
    1946,    5370,    3657,    5217,    5395,    5369,    4973,    5199,    5396
    1947,    5155,    5217,    5218,    5156,    5315,    5395,    5373,    5313
    1948,    5315,    5395,    5373,    5313,    5316,    5396,    5374,    5314
    1949,    5316,    5396,    5374,    5314,    5169,    5199,    5200,    5170
    1950,    5395,    5217,    5218,    5373,    5396,    5199,    5200,    5374
    1951,    5258,    5256,    5255,    5257,    5398,    5400,    5402,    5404
    1952,    5398,    5400,    5402,    5404,    5397,    5399,    5401,    5403
    1953,    5397,    5399,    5401,    5403,    5260,    5253,    5254,    5259
    1954,    5048,    5050,    5047,    2597,    5405,    5408,    5410,    5411
    1955,    5405,    5408,    5410,    5411,    5406,    5407,    5409,    5412
    1956,    5406,    5407,    5409,    5412,    5046,    5049,    5045,    2594
    1957,    5328,    5330,    2597,    5047,    5413,    5415,    5411,    5410
    1958,    5413,    5415,    5411,    5410,    5414,    5416,    5412,    5409
    1959,    5414,    5416,    5412,    5409,    5361,    5364,    2594,    5045
    1960,    5127,    2657,    5329,    5327,    5425,    5428,    5429,    5431
    1961,    5425,    5428,    5429,    5431,    5426,    5427,    5430,    5432
    1962,    5426,    5427,    5430,    5432,    5128,    2653,    5363,    5362
    1963,    5327,    5329,    5330,    5328,    5431,    5429,    5415,    5413
    1964,    5431,    5429,    5415,    5413,    5432,    5430,    5416,    5414
    1965,    5432,    5430,    5416,    5414,    5362,    5363,    5364,    5361
    1966,    2609,    5093,    5256,    5258,    5459,    5458,    5400,    5398
    1967,    5459,    5458,    5400,    5398,    5460,    5457,    5399,    5397
    1968,    5460,    5457,    5399,    5397,    2606,    5094,    5253,    5260
    1969,    5257,    5255,    5048,    2597,    5404,    5402,    5405,    5411
    1970,    5404,    5402,    5405,    5411,    5403,    5401,    5406,    5412
    1971,    5403,    5401,    5406,    5412,    5259,    5254,    5046,    2594
    1972,    2855,    2868,    5461,    5463,    5046,    5049,    5407,    5406
    1973,    5463,    5461,    5462,    5464,    5406,    5407,    5408,    5405
    1974,    5464,    5462,    4636,    4635,    5405,    5408,    5050,    5048
    1975,    2855,    2868,    4636,    4635,    5463,    5461,    5462,    5464
    1976,    2842,    5289,    5467,    5465,    5094,    5253,    5399,    5457
    1977,    5465,    5467,    5468,    5466,    5457,    5399,    5400,    5458
    1978,    5466,    5468,    5291,    4634,    5458,    5400,    5256,    5093
    1979,    2842,    5289,    5291,    4634,    5465,    5467,    5468,    5466
    1980,    2769,    2816,    4632,    3221,    5471,    5469,    5470,    5472
    1981,    5473,    2956,    5008,    5474,    5475,    2957,    5023,    5476
    1982,    5431,    5479,    5382,    5327,    5425,    5477,    4963,    5127
    1983,    5432,    5480,    5479,    5431,    5426,    5478,    5477,    5425
    1984,    5362,    5380,    5480,    5432,    5128,    2953,    5478,    5426
    1985,    5480,    5380,    5382,    5479,    5478,    2953,    4963,    5477
    1986,    5410,    5483,    3659,    5047,    5413,    5481,    5381,    5328
    1987,    5409,    5484,    5483,    5410,    5414,    5482,    5481,    5413
    1988,    5045,    2811,    5484,    5409,    5361,    5379,    5482,    5414
    1989,    5484,    2811,    3659,    5483,    5482,    5379,    5381,    5481
    1990,    5413,    5481,    5381,    5328,    5431,    5479,    5382,    5327
    1991,    5414,    5482,    5481,    5413,    5432,    5480,    5479,    5431
    1992,    5361,    5379,    5482,    5414,    5362,    5380,    5480,    5432
    1993,    5482,    5379,    5381,    5481,    5480,    5380,    5382,    5479
    1994,    5478,    2953,    4963,    5477,    5486,    2954,    4978,    5485
    1995,    5486,    2954,    4978,    5485,    5487,    2955,    4993,    5488
    1996,    5487,    2955,    4993,    5488,    5473,    2956,    5008,    5474
    1997,    5475,    2957,    5023,    5476,    5489,    2673,    2708,    5490
    1998,    2816,    2829,    4633,    4632,    5469,    5491,    5492,    5470
    1999,    2829,    2842,    4634,    4633,    5491,    5465,    5466,    5492
    2000,    5049,    2868,    5461,    5407,    5045,    2811,    5484,    5409
    2001,    5407,    5461,    5462,    5408,    5409,    5484,    5483,    5410
    2002,    5408,    5462,    4636,    5050,    5410,    5483,    3659,    5047
    2003,    5461,    2868,    4636,    5462,    5484,    2811,    3659,    5483
    2004,    5289,    5290,    5493,    5467,    5253,    5254,    5401,    5399
    2005,    5467,    5493,    5494,    5468,    5399,    5401,    5402,    5400
    2006,    5468,    5494,    5292,    5291,    5400,    5402,    5255,    5256
    2007,    5289,    5290,    5292,    5291,    5467,    5493,    5494,    5468
    2008,    5290,    2855,    5463,    5493,    5254,    5046,    5406,    5401
    2009,    5493,    5463,    5464,    5494,    5401,    5406,    5405,    5402
    2010,    5494,    5464,    4635,    5292,    5402,    5405,    5048,    5255
    2011,    5290,    2855,    4635,    5292,    5493,    5463,    5464,    5494
    2012,    5058,    2598,    5198,    5196,    5495,    5497,    5499,    5501
    2013,    5495,    5497,    5499,    5501,    5496,    5498,    5500,    5502
    2014,    5496,    5498,    5500,    5502,    5060,    2599,    5193,    5191
    2015,    5350,    5347,    2598,    5057,    5503,    5505,    5497,    5507
    2016,    5503,    5505,    5497,    5507,    5504,    5506,    5498,    5508
    2017,    5504,    5506,    5498,    5508,    5352,    5346,    2599,    5059
    2018,    5103,    2628,    5348,    5349,    5509,    5512,    5513,    5515
    2019,    5509,    5512,    5513,    5515,    5510,    5511,    5514,    5516
    2020,    5510,    5511,    5514,    5516,    5104,    2643,    5345,    5351
    2021,    5195,    5197,    2605,    5100,    5533,    5535,    5538,    5539
    2022,    5533,    5535,    5538,    5539,    5534,    5536,    5537,    5540
    2023,    5534,    5536,    5537,    5540,    5192,    5194,    2617,    5099
    2024,    5196,    5198,    5197,    5195,    5501,    5499,    5535,    5533
    2025,    5501,    5499,    5535,    5533,    5502,    5500,    5536,    5534
    2026,    5502,    5500,    5536,    5534,    5191,    5193,    5194,    5192
    2027,    5090,    2603,    5424,    5418,    5545,    5548,    5549,    5551
    2028,    5545,    5548,    5549,    5551,    5546,    5547,    5550,    5552
    2029,    5546,    5547,    5550,    5552,    5088,    2615,    5421,    5420
    2030,    5418,    5424,    5423,    5417,    5551,    5549,    5553,    5555
    2031,    5551,    5549,    5553,    5555,    5552,    5550,    5554,    5556
    2032,    5552,    5550,    5554,    5556,    5420,    5421,    5422,    5419
    2033,    5417,    5423,    2602,    5087,    5555,    5553,    5558,    5559
    2034,    5555,    5553,    5558,    5559,    5556,    5554,    5557,    5560
    2035,    5556,    5554,    5557,    5560,    5419,    5422,    2608,    5089
    2036,    5349,    5348,    5347,    5350,    5515,    5513,    5505,    5503
    2037,    5515,    5513,    5505,    5503,    5516,    5514,    5506,    5504
    2038,    5516,    5514,    5506,    5504,    5351,    5345,    5346,    5352
    2039,    5058,    5061,    5057,    2598,    5495,    5566,    5507,    5497
    2040,    5495,    5566,    5507,    5497,    5496,    5565,    5508,    5498
    2041,    5496,    5565,    5508,    5498,    5060,    5062,    5059,    2599
    2042,    5057,    5507,    5569,    3087,    5350,    5503,    5567,    5386
    2043,    5507,    5508,    5570,    5569,    5503,    5504,    5568,    5567
    2044,    5508,    5059,    3600,    5570,    5504,    5352,    5384,    5568
    2045,    5569,    5570,    3600,    3087,    5567,    5568,    5384,    5386
    2046,    5349,    5515,    5573,    5385,    5103,    5509,    5571,    3092
    2047,    5515,    5516,    5574,    5573,    5509,    5510,    5572,    5571
    2048,    5516,    5351,    5383,    5574,    5510,    5104,    4738,    5572
    2049,    5573,    5574,    5383,    5385,    5571,    5572,    4738,    3092
    2050,    5576,    5575,    4783,    3093,    5578,    5577,    4828,    3094
    2051,    5580,    5579,    4873,    3095,    5582,    5581,    4918,    3096
    2052,    5582,    5581,    4918,    3096,    5584,    5583,    2767,    2702
    2053,    2769,    5587,    5585,    5471,    5087,    5559,    5555,    5417
    2054,    5587,    5588,    5586,    5585,    5559,    5560,    5556,    5555
    2055,    5588,    2816,    5469,    5586,    5560,    5089,    5419,    5556
    2056,    2769,    2816,    5469,    5471,    5587,    5588,    5586,    5585
    2057,    3195,    5591,    5589,    5208,    5100,    5539,    5533,    5195
    2058,    5591,    5592,    5590,    5589,    5539,    5540,    5534,    5533
    2059,    5592,    4650,    5206,    5590,    5540,    5099,    5192,    5534
    2060,    3195,    4650,    5206,    5208,    5591,    5592,    5590,    5589
    2061,    5208,    5589,    5593,    5207,    5195,    5533,    5501,    5196
    2062,    5589,    5590,    5594,    5593,    5533,    5534,    5502,    5501
    2063,    5590,    5206,    5205,    5594,    5534,    5192,    5191,    5502
    2064,    5208,    5206,    5205,    5207,    5589,    5590,    5594,    5593
    2065,    3208,    4641,    4650,    3195,    5595,    5596,    5592,    5591
    2066,    5471,    5585,    5597,    5472,    5417,    5555,    5551,    5418
    2067,    5585,    5586,    5598,    5597,    5555,    5556,    5552,    5551
    2068,    5586,    5469,    5470,    5598,    5556,    5419,    5420,    5552
    2069,    5471,    5469,    5470,    5472,    5585,    5586,    5598,    5597
    2070,    5472,    5597,    5599,    3221,    5418,    5551,    5545,    5090
    2071,    5597,    5598,    5600,    5599,    5551,    5552,    5546,    5545
    2072,    5598,    5470,    4632,    5600,    5552,    5420,    5088,    5546
    2073,    5472,    5470,    4632,    3221,    5597,    5598,    5600,    5599
    2074,    3221,    4632,    4641,    3208,    5599,    5600,    5596,    5595
    2075,    5578,    5577,    4828,    3094,    5580,    5579,    4873,    3095
    2076,    5571,    5572,    4738,    3092,    5576,    5575,    4783,    3093
    2077,    5350,    5503,    5567,    5386,    5349,    5515,    5573,    5385
    2078,    5503,    5504,    5568,    5567,    5515,    5516,    5574,    5573
    2079,    5504,    5352,    5384,    5568,    5516,    5351,    5383,    5574
    2080,    5567,    5568,    5384,    5386,    5573,    5574,    5383,    5385
    2081,    5565,    5062,    4668,    5601,    5508,    5059,    3600,    5570
    2082,    5566,    5565,    5601,    5602,    5507,    5508,    5570,    5569
    2083,    5061,    5566,    5602,    3169,    5057,    5507,    5569,    3087
    2084,    5602,    5601,    4668,    3169,    5569,    5570,    3600,    3087
    2085,    5207,    5593,    5603,    3182,    5196,    5501,    5495,    5058
    2086,    5593,    5594,    5604,    5603,    5501,    5502,    5496,    5495
    2087,    5594,    5205,    4659,    5604,    5502,    5191,    5060,    5496
    2088,    5207,    5205,    4659,    3182,    5593,    5594,    5604,    5603
    2089,    3182,    5603,    5602,    3169,    5058,    5495,    5566,    5061
    2090,    5603,    5604,    5601,    5602,    5495,    5496,    5565,    5566
    2091,    5604,    4659,    4668,    5601,    5496,    5060,    5062,    5565
    2092,    3182,    4659,    4668,    3169,    5603,    5604,    5601,    5602
    2093,    5250,    5248,    5247,    5249,    5606,    5608,    5610,    5612
    2094,    5606,    5608,    5610,    5612,    5605,    5607,    5609,    5611
    2095,    5605,    5607,    5609,    5611,    5252,    5245,    5246,    5251
    2096,    5055,    5056,    5054,    2595,    5613,    5616,    5618,    5619
    2097,    5613,    5616,    5618,    5619,    5614,    5615,    5617,    5620
    2098,    5614,    5615,    5617,    5620,    5052,    5053,    5051,    2596
    2099,    5326,    5324,    2595,    5054,    5621,    5623,    5619,    5618
    2100,    5621,    5623,    5619,    5618,    5622,    5624,    5620,    5617
    2101,    5622,    5624,    5620,    5617,    5320,    5322,    2596,    5051
    2102,    5325,    5323,    5324,    5326,    5641,    5643,    5623,    5621
    2103,    5641,    5643,    5623,    5621,    5642,    5644,    5624,    5622
    2104,    5642,    5644,    5624,    5622,    5319,    5321,    5322,    5320
    2105,    5130,    2667,    5323,    5325,    5645,    5648,    5643,    5641
    2106,    5645,    5648,    5643,    5641,    5646,    5647,    5644,    5642
    2107,    5646,    5647,    5644,    5642,    5129,    2662,    5321,    5319
    2108,    2605,    5100,    5539,    5538,    5662,    5664,    5666,    5668
    2109,    5662,    5664,    5666,    5668,    5661,    5663,    5665,    5667
    2110,    5661,    5663,    5665,    5667,    2604,    5096,    5541,    5544
    2111,    5538,    5539,    5540,    5537,    5668,    5666,    5670,    5672
    2112,    5668,    5666,    5670,    5672,    5667,    5665,    5669,    5671
    2113,    5667,    5665,    5669,    5671,    5544,    5541,    5542,    5543
    2114,    5537,    5540,    5099,    2617,    5672,    5670,    5625,    5631
    2115,    5672,    5670,    5625,    5631,    5671,    5669,    5626,    5632
    2116,    5671,    5669,    5626,    5632,    5543,    5542,    5095,    2616
    2117,    2611,    5102,    5248,    5250,    5675,    5674,    5608,    5606
    2118,    5675,    5674,    5608,    5606,    5676,    5673,    5607,    5605
    2119,    5676,    5673,    5607,    5605,    2610,    5098,    5245,    5252
    2120,    5249,    5247,    5055,    2595,    5612,    5610,    5613,    5619
    2121,    5612,    5610,    5613,    5619,    5611,    5609,    5614,    5620
    2122,    5611,    5609,    5614,    5620,    5251,    5246,    5052,    2596
    2123,    4644,    4645,    5677,    5679,    5052,    5053,    5615,    5614
    2124,    5679,    5677,    5678,    5680,    5614,    5615,    5616,    5613
    2125,    5680,    5678,    4654,    4653,    5613,    5616,    5056,    5055
    2126,    4644,    4645,    4654,    4653,    5679,    5677,    5678,    5680
    2127,    4643,    5285,    5683,    5681,    5098,    5245,    5607,    5673
    2128,    5681,    5683,    5684,    5682,    5673,    5607,    5608,    5674
    2129,    5682,    5684,    5287,    4652,    5674,    5608,    5248,    5102
    2130,    4643,    5285,    5287,    4652,    5681,    5683,    5684,    5682
    2131,    4641,    4642,    4651,    4650,    5687,    5685,    5686,    5688
    2132,    3208,    5595,    5691,    5689,    5096,    5541,    5665,    5663
    2133,    5689,    5691,    5692,    5690,    5663,    5665,    5666,    5664
    2134,    5690,    5692,    5591,    3195,    5664,    5666,    5539,    5100
    2135,    3208,    5595,    5591,    3195,    5689,    5691,    5692,    5690
    2136,    5595,    5596,    5693,    5691,    5541,    5542,    5669,    5665
    2137,    5691,    5693,    5694,    5692,    5665,    5669,    5670,    5666
    2138,    5692,    5694,    5592,    5591,    5666,    5670,    5540,    5539
    2139,    5595,    5596,    5592,    5591,    5691,    5693,    5694,    5692
    2140,    5596,    4641,    5687,    5693,    5542,    5095,    5626,    5669
    2141,    5693,    5687,    5688,    5694,    5669,    5626,    5625,    5670
    2142,    5694,    5688,    4650,    5592,    5670,    5625,    5099,    5540
    2143,    5596,    4641,    4650,    5592,    5693,    5687,    5688,    5694
    2144,    5695,    5013,    5018,    5696,    5697,    5028,    5033,    5698
    2145,    5621,    5701,    5370,    5326,    5641,    5699,    5369,    5325
    2146,    5622,    5702,    5701,    5621,    5642,    5700,    5699,    5641
    2147,    5320,    5368,    5702,    5622,    5319,    5367,    5700,    5642
    2148,    5702,    5368,    5370,    5701,    5700,    5367,    5369,    5699
    2149,    5618,    5703,    3657,    5054,    5621,    5701,    5370,    5326
    2150,    5617,    5704,    5703,    5618,    5622,    5702,    5701,    5621
    2151,    5051,    3658,    5704,    5617,    5320,    5368,    5702,    5622
    2152,    5704,    3658,    3657,    5703,    5702,    5368,    5370,    5701
    2153,    5641,    5699,    5369,    5325,    5645,    5705,    4973,    5130
    2154,    5642,    5700,    5699,    5641,    5646,    5706,    5705,    5645
    2155,    5319,    5367,    5700,    5642,    5129,    4968,    5706,    5646
    2156,    5700,    5367,    5369,    5699,    5706,    4968,    4973,    5705
    2157,    5706,    4968,    4973,    5705,    5708,    4983,    4988,    5707
    2158,    5708,    4983,    4988,    5707,    5709,    4998,    5003,    5710
    2159,    5709,    4998,    5003,    5710,    5695,    5013,    5018,    5696
    2160,    5697,    5028,    5033,    5698,    5711,    2713,    2718,    5712
    2161,    4642,    4643,    4652,    4651,    5685,    5681,    5682,    5686
    2162,    5053,    4645,    5677,    5615,    5051,    3658,    5704,    5617
    2163,    5615,    5677,    5678,    5616,    5617,    5704,    5703,    5618
    2164,    5616,    5678,    4654,    5056,    5618,    5703,    3657,    5054
    2165,    5677,    4645,    4654,    5678,    5704,    3658,    3657,    5703
    2166,    5285,    5286,    5713,    5683,    5245,    5246,    5609,    5607
    2167,    5683,    5713,    5714,    5684,    5607,    5609,    5610,    5608
    2168,    5684,    5714,    5288,    5287,    5608,    5610,    5247,    5248
    2169,    5285,    5286,    5288,    5287,    5683,    5713,    5714,    5684
    2170,    5286,    4644,    5679,    5713,    5246,    5052,    5614,    5609
    2171,    5713,    5679,    5680,    5714,    5609,    5614,    5613,    5610
    2172,    5714,    5680,    4653,    5288,    5610,    5613,    5055,    5247
    2173,    5286,    4644,    4653,    5288,    5713,    5679,    5680,    5714
    2174,    5319,    5321,    5322,    5320,    5715,    5717,    5719,    5721
    2175,    5715,    5717,    5719,    5721,    5716,    5718,    5720,    5722
    2176,    5716,    5718,    5720,    5722,    5327,    5329,    5330,    5328
    2177,    5052,    5053,    5051,    2596,    5723,    5726,    5728,    5729
    2178,    5723,    5726,    5728,    5729,    5724,    5725,    5727,    5730
    2179,    5724,    5725,    5727,    5730,    5048,    5050,    5047,    2597
    2180,    5252,    5245,    5246,    5251,    5732,    5734,    5736,    5738
    2181,    5732,    5734,    5736,    5738,    5731,    5733,    5735,    5737
    2182,    5731,    5733,    5735,    5737,    5258,    5256,    5255,    5257
    2183,    5129,    2662,    5321,    5319,    5755,    5758,    5717,    5715
    2184,    5755,    5758,    5717,    5715,    5756,    5757,    5718,    5716
    2185,    5756,    5757,    5718,    5716,    5127,    2657,    5329,    5327
    2186,    5544,    5541,    5542,    5543,    5772,    5774,    5776,    5778
    2187,    5772,    5774,    5776,    5778,    5771,    5773,    5775,    5777
    2188,    5771,    5773,    5775,    5777,    5548,    5545,    5546,    5547
    2189,    2604,    5096,    5541,    5544,    5780,    5782,    5774,    5772
    2190,    5780,    5782,    5774,    5772,    5779,    5781,    5773,    5771
    2191,    5779,    5781,    5773,    5771,    2603,    5090,    5545,    5548
    2192,    5543,    5542,    5095,    2616,    5778,    5776,    5739,    5745
    2193,    5778,    5776,    5739,    5745,    5777,    5775,    5740,    5746
    2194,    5777,    5775,    5740,    5746,    5547,    5546,    5088,    2615
    2195,    2610,    5098,    5245,    5252,    5785,    5784,    5734,    5732
    2196,    5785,    5784,    5734,    5732,    5786,    5783,    5733,    5731
    2197,    5786,    5783,    5733,    5731,    2609,    5093,    5256,    5258
    2198,    5251,    5246,    5052,    2596,    5738,    5736,    5723,    5729
    2199,    5738,    5736,    5723,    5729,    5737,    5735,    5724,    5730
    2200,    5737,    5735,    5724,    5730,    5257,    5255,    5048,    2597
    2201,    5320,    5322,    2596,    5051,    5721,    5719,    5729,    5728
    2202,    5721,    5719,    5729,    5728,    5722,    5720,    5730,    5727
    2203,    5722,    5720,    5730,    5727,    5328,    5330,    2597,    5047
    2204,    4635,    4636,    5787,    5789,    5048,    5050,    5725,    5724
    2205,    5789,    5787,    5788,    5790,    5724,    5725,    5726,    5723
    2206,    5790,    5788,    4645,    4644,    5723,    5726,    5053,    5052
    2207,    4635,    4636,    4645,    4644,    5789,    5787,    5788,    5790
    2208,    4634,    5291,    5793,    5791,    5093,    5256,    5733,    5783
    2209,    5791,    5793,    5794,    5792,    5783,    5733,    5734,    5784
    2210,    5792,    5794,    5285,    4643,    5784,    5734,    5245,    5098
    2211,    4634,    5291,    5285,    4643,    5791,    5793,    5794,    5792
    2212,    4632,    4633,    4642,    4641,    5797,    5795,    5796,    5798
    2213,    5599,    5600,    5801,    5799,    5545,    5546,    5775,    5773
    2214,    5799,    5801,    5802,    5800,    5773,    5775,    5776,    5774
    2215,    5800,    5802,    5596,    5595,    5774,    5776,    5542,    5541
    2216,    5599,    5600,    5596,    5595,    5799,    5801,    5802,    5800
    2217,    3221,    5599,    5799,    5803,    5090,    5545,    5773,    5781
    2218,    5803,    5799,    5800,    5804,    5781,    5773,    5774,    5782
    2219,    5804,    5800,    5595,    3208,    5782,    5774,    5541,    5096
    2220,    3221,    5599,    5595,    3208,    5803,    5799,    5800,    5804
    2221,    5600,    4632,    5797,    5801,    5546,    5088,    5740,    5775
    2222,    5801,    5797,    5798,    5802,    5775,    5740,    5739,    5776
    2223,    5802,    5798,    4641,    5596,    5776,    5739,    5095,    5542
    2224,    5600,    4632,    4641,    5596,    5801,    5797,    5798,    5802
    2225,    5805,    5008,    5013,    5806,    5807,    5023,    5028,    5808
    2226,    5715,    5811,    5367,    5319,    5755,    5809,    4968,    5129
    2227,    5716,    5812,    5811,    5715,    5756,    5810,    5809,    5755
    2228,    5327,    5382,    5812,    5716,    5127,    4963,    5810,    5756
    2229,    5812,    5382,    5367,    5811,    5810,    4963,    4968,    5809
    2230,    5810,    4963,    4968,    5809,    5814,    4978,    4983,    5813
    2231,    5814,    4978,    4983,    5813,    5815,    4993,    4998,    5816
    2232,    5815,    4993,    4998,    5816,    5805,    5008,    5013,    5806
    2233,    5807,    5023,    5028,    5808,    5817,    2708,    2713,    5818
    2234,    4633,    4634,    4643,    4642,    5795,    5791,    5792,    5796
    2235,    5292,    4635,    5789,    5819,    5255,    5048,    5724,    5735
    2236,    5819,    5789,    5790,    5820,    5735,    5724,    5723,    5736
    2237,    5820,    5790,    4644,    5286,    5736,    5723,    5052,    5246
    2238,    5292,    4635,    4644,    5286,    5819,    5789,    5790,    5820
    2239,    5291,    5292,    5819,    5793,    5256,    5255,    5735,    5733
    2240,    5793,    5819,    5820,    5794,    5733,    5735,    5736,    5734
    2241,    5794,    5820,    5286,    5285,    5734,    5736,    5246,    5245
    2242,    5291,    5292,    5286,    5285,    5793,    5819,    5820,    5794
    2243,    5050,    4636,    5787,    5725,    5047,    3659,    5821,    5727
    2244,    5725,    5787,    5788,    5726,    5727,    5821,    5822,    5728
    2245,    5726,    5788,    4645,    5053,    5728,    5822,    3658,    5051
    2246,    5787,    4636,    4645,    5788,    5821,    3659,    3658,    5822
    2247,    5721,    5823,    5368,    5320,    5715,    5811,    5367,    5319
    2248,    5722,    5824,    5823,    5721,    5716,    5812,    5811,    5715
    2249,    5328,    5381,    5824,    5722,    5327,    5382,    5812,    5716
    2250,    5824,    5381,    5368,    5823,    5812,    5382,    5367,    5811
    2251,    5728,    5822,    3658,    5051,    5721,    5823,    5368,    5320
    2252,    5727,    5821,    5822,    5728,    5722,    5824,    5823,    5721
    2253,    5047,    3659,    5821,    5727,    5328,    5381,    5824,    5722
    2254,    5821,    3659,    3658,    5822,    5824,    5381,    5368,    5823
    2255,    5351,    5345,    5346,    5352,    5825,    5827,    5829,    5831
    2256,    5825,    5827,    5829,    5831,    5826,    5828,    5830,    5832
    2257,    5826,    5828,    5830,    5832,    5359,    5357,    5358,    5360
    2258,    5060,    5062,    5059,    2599,    5833,    5836,    5838,    5839
    2259,    5833,    5836,    5838,    5839,    5834,    5835,    5837,    5840
    2260,    5834,    5835,    5837,    5840,    5064,    5065,    5063,    2600
    2261,    5191,    5193,    5194,    5192,    5841,    5843,    5845,    5847
    2262,    5841,    5843,    5845,    5847,    5842,    5844,    5846,    5848
    2263,    5842,    5844,    5846,    5848,    5159,    5165,    5166,    5160
    2264,    5099,    2617,    5631,    5625,    5849,    5852,    5853,    5855
    2265,    5849,    5852,    5853,    5855,    5850,    5851,    5854,    5856
    2266,    5850,    5851,    5854,    5856,    5101,    2614,    5629,    5628
    2267,    5626,    5632,    2616,    5095,    5857,    5859,    5862,    5863
    2268,    5857,    5859,    5862,    5863,    5858,    5860,    5861,    5864
    2269,    5858,    5860,    5861,    5864,    5627,    5630,    2613,    5097
    2270,    5739,    5745,    5746,    5740,    5865,    5867,    5869,    5871
    2271,    5865,    5867,    5869,    5871,    5866,    5868,    5870,    5872
    2272,    5866,    5868,    5870,    5872,    5742,    5743,    5744,    5741
    2273,    5088,    2615,    5421,    5420,    5873,    5876,    5877,    5879
    2274,    5873,    5876,    5877,    5879,    5874,    5875,    5878,    5880
    2275,    5874,    5875,    5878,    5880,    5091,    2612,    5455,    5454
    2276,    5104,    2643,    5345,    5351,    5881,    5884,    5827,    5825
    2277,    5881,    5884,    5827,    5825,    5882,    5883,    5828,    5826
    2278,    5882,    5883,    5828,    5826,    5105,    2638,    5357,    5359
    2279,    5419,    5422,    2608,    5089,    5905,    5907,    5910,    5911
    2280,    5905,    5907,    5910,    5911,    5906,    5908,    5909,    5912
    2281,    5906,    5908,    5909,    5912,    5453,    5456,    2607,    5092
    2282,    5420,    5421,    5422,    5419,    5879,    5877,    5907,    5905
    2283,    5879,    5877,    5907,    5905,    5880,    5878,    5908,    5906
    2284,    5880,    5878,    5908,    5906,    5454,    5455,    5456,    5453
    2285,    5740,    5746,    2615,    5088,    5871,    5869,    5876,    5873
    2286,    5871,    5869,    5876,    5873,    5872,    5870,    5875,    5874
    2287,    5872,    5870,    5875,    5874,    5741,    5744,    2612,    5091
    2288,    5095,    2616,    5745,    5739,    5863,    5862,    5867,    5865
    2289,    5863,    5862,    5867,    5865,    5864,    5861,    5868,    5866
    2290,    5864,    5861,    5868,    5866,    5097,    2613,    5743,    5742
    2291,    5625,    5631,    5632,    5626,    5855,    5853,    5859,    5857
    2292,    5855,    5853,    5859,    5857,    5856,    5854,    5860,    5858
    2293,    5856,    5854,    5860,    5858,    5628,    5629,    5630,    5627
    2294,    5192,    5194,    2617,    5099,    5847,    5845,    5852,    5849
    2295,    5847,    5845,    5852,    5849,    5848,    5846,    5851,    5850
    2296,    5848,    5846,    5851,    5850,    5160,    5166,    2614,    5101
    2297,    5060,    2599,    5193,    5191,    5833,    5839,    5843,    5841
    2298,    5833,    5839,    5843,    5841,    5834,    5840,    5844,    5842
    2299,    5834,    5840,    5844,    5842,    5064,    2600,    5165,    5159
    2300,    5352,    5346,    2599,    5059,    5831,    5829,    5839,    5838
    2301,    5831,    5829,    5839,    5838,    5832,    5830,    5840,    5837
    2302,    5832,    5830,    5840,    5837,    5360,    5358,    2600,    5063
    2303,    5206,    5915,    5913,    5205,    5192,    5847,    5841,    5191
    2304,    5915,    5916,    5914,    5913,    5847,    5848,    5842,    5841
    2305,    5916,    5204,    5203,    5914,    5848,    5160,    5159,    5842
    2306,    5206,    5204,    5203,    5205,    5915,    5916,    5914,    5913
    2307,    5688,    5919,    5917,    4650,    5625,    5855,    5849,    5099
    2308,    5919,    5920,    5918,    5917,    5855,    5856,    5850,    5849
    2309,    5920,    5686,    4651,    5918,    5856,    5628,    5101,    5850
    2310,    5688,    5686,    4651,    4650,    5919,    5920,    5918,    5917
    2311,    4641,    5923,    5921,    5687,    5095,    5863,    5857,    5626
    2312,    5923,    5924,    5922,    5921,    5863,    5864,    5858,    5857
    2313,    5924,    4642,    5685,    5922,    5864,    5097,    5627,    5858
    2314,    4641,    4642,    5685,    5687,    5923,    5924,    5922,    5921
    2315,    5797,    5927,    5925,    5798,    5740,    5871,    5865,    5739
    2316,    5927,    5928,    5926,    5925,    5871,    5872,    5866,    5865
    2317,    5928,    5795,    5796,    5926,    5872,    5741,    5742,    5866
    2318,    5797,    5795,    5796,    5798,    5927,    5928,    5926,    5925
    2319,    5470,    5931,    5929,    4632,    5420,    5879,    5873,    5088
    2320,    5931,    5932,    5930,    5929,    5879,    5880,    5874,    5873
    2321,    5932,    5492,    4633,    5930,    5880,    5454,    5091,    5874
    2322,    5470,    5492,    4633,    4632,    5931,    5932,    5930,    5929
    2323,    2816,    5935,    5933,    5469,    5089,    5911,    5905,    5419
    2324,    5935,    5936,    5934,    5933,    5911,    5912,    5906,    5905
    2325,    5936,    2829,    5491,    5934,    5912,    5092,    5453,    5906
    2326,    2816,    2829,    5491,    5469,    5935,    5936,    5934,    5933
    2327,    5938,    5937,    4784,    4783,    5940,    5939,    4829,    4828
    2328,    5942,    5941,    4919,    4918,    5944,    5943,    2766,    2767
    2329,    5946,    5945,    4874,    4873,    5942,    5941,    4919,    4918
    2330,    5940,    5939,    4829,    4828,    5946,    5945,    4874,    4873
    2331,    5351,    5825,    5949,    5383,    5104,    5881,    5947,    4738
    2332,    5825,    5826,    5950,    5949,    5881,    5882,    5948,    5947
    2333,    5826,    5359,    5387,    5950,    5882,    5105,    4739,    5948
    2334,    5949,    5950,    5387,    5383,    5947,    5948,    4739,    4738
    2335,    5947,    5948,    4739,    4738,    5938,    5937,    4784,    4783
    2336,    5469,    5933,    5931,    5470,    5419,    5905,    5879,    5420
    2337,    5933,    5934,    5932,    5931,    5905,    5906,    5880,    5879
    2338,    5934,    5491,    5492,    5932,    5906,    5453,    5454,    5880
    2339,    5469,    5491,    5492,    5470,    5933,    5934,    5932,    5931
    2340,    4632,    5929,    5927,    5797,    5088,    5873,    5871,    5740
    2341,    5929,    5930,    5928,    5927,    5873,    5874,    5872,    5871
    2342,    5930,    4633,    5795,    5928,    5874,    5091,    5741,    5872
    2343,    4632,    4633,    5795,    5797,    5929,    5930,    5928,    5927
    2344,    5798,    5925,    5923,    4641,    5739,    5865,    5863,    5095
    2345,    5925,    5926,    5924,    5923,    5865,    5866,    5864,    5863
    2346,    5926,    5796,    4642,    5924,    5866,    5742,    5097,    5864
    2347,    5798,    5796,    4642,    4641,    5925,    5926,    5924,    5923
    2348,    5687,    5921,    5919,    5688,    5626,    5857,    5855,    5625
    2349,    5921,    5922,    5920,    5919,    5857,    5858,    5856,    5855
    2350,    5922,    5685,    5686,    5920,    5858,    5627,    5628,    5856
    2351,    5687,    5685,    5686,    5688,    5921,    5922,    5920,    5919
    2352,    4650,    5917,    5915,    5206,    5099,    5849,    5847,    5192
    2353,    5917,    5918,    5916,    5915,    5849,    5850,    5848,    5847
    2354,    5918,    4651,    5204,    5916,    5850,    5101,    5160,    5848
    2355,    4650,    4651,    5204,    5206,    5917,    5918,    5916,    5915
    2356,    4659,    5951,    5953,    4668,    5060,    5833,    5836,    5062
    2357,    5951,    5952,    5954,    5953,    5833,    5834,    5835,    5836
    2358,    5952,    4660,    4669,    5954,    5834,    5064,    5065,    5835
    2359,    4659,    4660,    4669,    4668,    5951,    5952,    5954,    5953
    2360,    5205,    5913,    5951,    4659,    5191,    5841,    5833,    5060
    2361,    5913,    5914,    5952,    5951,    5841,    5842,    5834,    5833
    2362,    5914,    5203,    4660,    5952,    5842,    5159,    5064,    5834
    2363,    5205,    5203,    4660,    4659,    5913,    5914,    5952,    5951
    2364,    5835,    5065,    4669,    5954,    5837,    5063,    3605,    5955
    2365,    5836,    5835,    5954,    5953,    5838,    5837,    5955,    5956
    2366,    5062,    5836,    5953,    4668,    5059,    5838,    5956,    3600
    2367,    5953,    5954,    4669,    4668,    5956,    5955,    3605,    3600
    2368,    5352,    5831,    5957,    5384,    5351,    5825,    5949,    5383
    2369,    5831,    5832,    5958,    5957,    5825,    5826,    5950,    5949
    2370,    5832,    5360,    5388,    5958,    5826,    5359,    5387,    5950
    2371,    5957,    5958,    5388,    5384,    5949,    5950,    5387,    5383
    2372,    5059,    5838,    5956,    3600,    5352,    5831,    5957,    5384
    2373,    5838,    5837,    5955,    5956,    5831,    5832,    5958,    5957
    2374,    5837,    5063,    3605,    5955,    5832,    5360,    5388,    5958
    2375,    5956,    5955,    3605,    3600,    5957,    5958,    5388,    5384
    2376,    5359,    5357,    5358,    5360,    5959,    5961,    5963,    5965
    2377,    5959,    5961,    5963,    5965,    5960,    5962,    5964,    5966
    2378,    5960,    5962,    5964,    5966,    5356,    5353,    5354,    5355
    2379,    5064,    5065,    5063,    2600,    5967,    5970,    5972,    5973
    2380,    5967,    5970,    5972,    5973,    5968,    5969,    5971,    5974
    2381,    5968,    5969,    5971,    5974,    5067,    5068,    5066,    2601
    2382,    5159,    5165,    5166,    5160,    5975,    5977,    5979,    5981
    2383,    5975,    5977,    5979,    5981,    5976,    5978,    5980,    5982
    2384,    5976,    5978,    5980,    5982,    5162,    5163,    5164,    5161
    2385,    5101,    2614,    5629,    5628,    5983,    5986,    5987,    5989
    2386,    5983,    5986,    5987,    5989,    5984,    5985,    5988,    5990
    2387,    5984,    5985,    5988,    5990,    5102,    2611,    5675,    5674
    2388,    5627,    5630,    2613,    5097,    5991,    5993,    5996,    5997
    2389,    5991,    5993,    5996,    5997,    5992,    5994,    5995,    5998
    2390,    5992,    5994,    5995,    5998,    5673,    5676,    2610,    5098
    2391,    5742,    5743,    5744,    5741,    5999,    6001,    6003,    6005
    2392,    5999,    6001,    6003,    6005,    6000,    6002,    6004,    6006
    2393,    6000,    6002,    6004,    6006,    5784,    5785,    5786,    5783
    2394,    5091,    2612,    5455,    5454,    6007,    6010,    6011,    6013
    2395,    6007,    6010,    6011,    6013,    6008,    6009,    6012,    6014
    2396,    6008,    6009,    6012,    6014,    5093,    2609,    5459,    5458
    2397,    5105,    2638,    5357,    5359,    6015,    6018,    5961,    5959
    2398,    6015,    6018,    5961,    5959,    6016,    6017,    5962,    5960
    2399,    6016,    6017,    5962,    5960,    5106,    2633,    5353,    5356
    2400,    5453,    5456,    2607,    5092,    6039,    6041,    6044,    6045
    2401,    6039,    6041,    6044,    6045,    6040,    6042,    6043,    6046
    2402,    6040,    6042,    6043,    6046,    5457,    5460,    2606,    5094
    2403,    5454,    5455,    5456,    5453,    6013,    6011,    6041,    6039
    2404,    6013,    6011,    6041,    6039,    6014,    6012,    6042,    6040
    2405,    6014,    6012,    6042,    6040,    5458,    5459,    5460,    5457
    2406,    5741,    5744,    2612,    5091,    6005,    6003,    6010,    6007
    2407,    6005,    6003,    6010,    6007,    6006,    6004,    6009,    6008
    2408,    6006,    6004,    6009,    6008,    5783,    5786,    2609,    5093
    2409,    5097,    2613,    5743,    5742,    5997,    5996,    6001,    5999
    2410,    5997,    5996,    6001,    5999,    5998,    5995,    6002,    6000
    2411,    5998,    5995,    6002,    6000,    5098,    2610,    5785,    5784
    2412,    5628,    5629,    5630,    5627,    5989,    5987,    5993,    5991
    2413,    5989,    5987,    5993,    5991,    5990,    5988,    5994,    5992
    2414,    5990,    5988,    5994,    5992,    5674,    5675,    5676,    5673
    2415,    5160,    5166,    2614,    5101,    5981,    5979,    5986,    5983
    2416,    5981,    5979,    5986,    5983,    5982,    5980,    5985,    5984
    2417,    5982,    5980,    5985,    5984,    5161,    5164,    2611,    5102
    2418,    5064,    2600,    5165,    5159,    5967,    5973,    5977,    5975
    2419,    5967,    5973,    5977,    5975,    5968,    5974,    5978,    5976
    2420,    5968,    5974,    5978,    5976,    5067,    2601,    5163,    5162
    2421,    5360,    5358,    2600,    5063,    5965,    5963,    5973,    5972
    2422,    5965,    5963,    5973,    5972,    5966,    5964,    5974,    5971
    2423,    5966,    5964,    5974,    5971,    5355,    5354,    2601,    5066
    2424,    5204,    6049,    6047,    5203,    5160,    5981,    5975,    5159
    2425,    6049,    6050,    6048,    6047,    5981,    5982,    5976,    5975
    2426,    6050,    5221,    5222,    6048,    5982,    5161,    5162,    5976
    2427,    5204,    5221,    5222,    5203,    6049,    6050,    6048,    6047
    2428,    5686,    6053,    6051,    4651,    5628,    5989,    5983,    5101
    2429,    6053,    6054,    6052,    6051,    5989,    5990,    5984,    5983
    2430,    6054,    5682,    4652,    6052,    5990,    5674,    5102,    5984
    2431,    5686,    5682,    4652,    4651,    6053,    6054,    6052,    6051
    2432,    4642,    6057,    6055,    5685,    5097,    5997,    5991,    5627
    2433,    6057,    6058,    6056,    6055,    5997,    5998,    5992,    5991
    2434,    6058,    4643,    5681,    6056,    5998,    5098,    5673,    5992
    2435,    4642,    4643,    5681,    5685,    6057,    6058,    6056,    6055
    2436,    5795,    6061,    6059,    5796,    5741,    6005,    5999,    5742
    2437,    6061,    6062,    6060,    6059,    6005,    6006,    6000,    5999
    2438,    6062,    5791,    5792,    6060,    6006,    5783,    5784,    6000
    2439,    5795,    5791,    5792,    5796,    6061,    6062,    6060,    6059
    2440,    5492,    6065,    6063,    4633,    5454,    6013,    6007,    5091
    2441,    6065,    6066,    6064,    6063,    6013,    6014,    6008,    6007
    2442,    6066,    5466,    4634,    6064,    6014,    5458,    5093,    6008
    2443,    5492,    5466,    4634,    4633,    6065,    6066,    6064,    6063
    2444,    2829,    6069,    6067,    5491,    5092,    6045,    6039,    5453
    2445,    6069,    6070,    6068,    6067,    6045,    6046,    6040,    6039
    2446,    6070,    2842,    5465,    6068,    6046,    5094,    5457,    6040
    2447,    2829,    2842,    5465,    5491,    6069,    6070,    6068,    6067
    2448,    6072,    6071,    4785,    4784,    6074,    6073,    4830,    4829
    2449,    6076,    6075,    4920,    4919,    6078,    6077,    2765,    2766
    2450,    6080,    6079,    4875,    4874,    6076,    6075,    4920,    4919
    2451,    6074,    6073,    4830,    4829,    6080,    6079,    4875,    4874
    2452,    5359,    5959,    6083,    5387,    5105,    6015,    6081,    4739
    2453,    5959,    5960,    6084,    6083,    6015,    6016,    6082,    6081
    2454,    5960,    5356,    5390,    6084,    6016,    5106,    4740,    6082
    2455,    6083,    6084,    5390,    5387,    6081,    6082,    4740,    4739
    2456,    6081,    6082,    4740,    4739,    6072,    6071,    4785,    4784
    2457,    5491,    6067,    6065,    5492,    5453,    6039,    6013,    5454
    2458,    6067,    6068,    6066,    6065,    6039,    6040,    6014,    6013
    2459,    6068,    5465,    5466,    6066,    6040,    5457,    5458,    6014
    2460,    5491,    5465,    5466,    5492,    6067,    6068,    6066,    6065
    2461,    4633,    6063,    6061,    5795,    5091,    6007,    6005,    5741
    2462,    6063,    6064,    6062,    6061,    6007,    6008,    6006,    6005
    2463,    6064,    4634,    5791,    6062,    6008,    5093,    5783,    6006
    2464,    4633,    4634,    5791,    5795,    6063,    6064,    6062,    6061
    2465,    5796,    6059,    6057,    4642,    5742,    5999,    5997,    5097
    2466,    6059,    6060,    6058,    6057,    5999,    6000,    5998,    5997
    2467,    6060,    5792,    4643,    6058,    6000,    5784,    5098,    5998
    2468,    5796,    5792,    4643,    4642,    6059,    6060,    6058,    6057
    2469,    5685,    6055,    6053,    5686,    5627,    5991,    5989,    5628
    2470,    6055,    6056,    6054,    6053,    5991,    5992,    5990,    5989
    2471,    6056,    5681,    5682,    6054,    5992,    5673,    5674,    5990
    2472,    5685,    5681,    5682,    5686,    6055,    6056,    6054,    6053
    2473,    4651,    6051,    6049,    5204,    5101,    5983,    5981,    5160
    2474,    6051,    6052,    6050,    6049,    5983,    5984,    5982,    5981
    2475,    6052,    4652,    5221,    6050,    5984,    5102,    5161,    5982
    2476,    4651,    4652,    5221,    5204,    6051,    6052,    6050,    6049
    2477,    4660,    6085,    6087,    4669,    5064,    5967,    5970,    5065
    2478,    6085,    6086,    6088,    6087,    5967,    5968,    5969,    5970
    2479,    6086,    4661,    4670,    6088,    5968,    5067,    5068,    5969
    2480,    4660,    4661,    4670,    4669,    6085,    6086,    6088,    6087
    2481,    5203,    6047,    6085,    4660,    5159,    5975,    5967,    5064
    2482,    6047,    6048,    6086,    6085,    5975,    5976,    5968,    5967
    2483,    6048,    5222,    4661,    6086,    5976,    5162,    5067,    5968
    2484,    5203,    5222,    4661,    4660,    6047,    6048,    6086,    6085
    2485,    5969,    5068,    4670,    6088,    5971,    5066,    3610,    6089
    2486,    5970,    5969,    6088,    6087,    5972,    5971,    6089,    6090
    2487,    5065,    5970,    6087,    4669,    5063,    5972,    6090,    3605
    2488,    6087,    6088,    4670,    4669,    6090,    6089,    3610,    3605
    2489,    5063,    5972,    6090,    3605,    5360,    5965,    6091,    5388
    2490,    5972,    5971,    6089,    6090,    5965,    5966,    6092,    6091
    2491,    5971,    5066,    3610,    6089,    5966,    5355,    5389,    6092
    2492,    6090,    6089,    3610,    3605,    6091,    6092,    5389,    5388
    2493,    5360,    5965,    6091,    5388,    5359,    5959,    6083,    5387
    2494,    5965,    5966,    6092,    6091,    5959,    5960,    6084,    6083
    2495,    5966,    5355,    5389,    6092,    5960,    5356,    5390,    6084
    2496,    6091,    6092,    5389,    5388,    6083,    6084,    5390,    5387
    2497,    2618,    5084,    5188,    5189,    6093,    6096,    6098,    6100
    2498,    6093,    6096,    6098,    6100,    6094,    6095,    6097,    6099
    2499,    6094,    6095,    6097,    6099,    2619,    5081,    5184,    5186
    2500,    5280,    5277,    5085,    2618,    6102,    6104,    6106,    6093
    2501,    6102,    6104,    6106,    6093,    6101,    6103,    6105,    6094
    2502,    6101,    6103,    6105,    6094,    5275,    5273,    5082,    2619
    2503,    5279,    5278,    5277,    5280,    6108,    6110,    6104,    6102
    2504,    6108,    6110,    6104,    6102,    6107,    6109,    6103,    6101
    2505,    6107,    6109,    6103,    6101,    5276,    5274,    5273,    5275
    2506,    5451,    5450,    5449,    5452,    6112,    6114,    6116,    6118
    2507,    6112,    6114,    6116,    6118,    6111,    6113,    6115,    6117
    2508,    6111,    6113,    6115,    6117,    5448,    5446,    5445,    5447
    2509,    5452,    5449,    5148,    2648,    6118,    6116,    6120,    6121
    2510,    6118,    6116,    6120,    6121,    6117,    6115,    6119,    6122
    2511,    6117,    6115,    6119,    6122,    5447,    5445,    5144,    2649
    2512,    5189,    5188,    5187,    5190,    6100,    6098,    6124,    6126
    2513,    6100,    6098,    6124,    6126,    6099,    6097,    6123,    6125
    2514,    6099,    6097,    6123,    6125,    5186,    5184,    5183,    5185
    2515,    5190,    5187,    5150,    2654,    6126,    6124,    6128,    6129
    2516,    6126,    6124,    6128,    6129,    6125,    6123,    6127,    6130
    2517,    6125,    6123,    6127,    6130,    5185,    5183,    5146,    2671
    2518,    2654,    5150,    5658,    5659,    6129,    6128,    6132,    6134
    2519,    6129,    6128,    6132,    6134,    6130,    6127,    6131,    6133
    2520,    6130,    6127,    6131,    6133,    2671,    5146,    5638,    5640
    2521,    5659,    5658,    5657,    5660,    6134,    6132,    6136,    6138
    2522,    6134,    6132,    6136,    6138,    6133,    6131,    6135,    6137
    2523,    6133,    6131,    6135,    6137,    5640,    5638,    5637,    5639
    2524,    5660,    5657,    5149,    2655,    6138,    6136,    6140,    6141
    2525,    6138,    6136,    6140,    6141,    6137,    6135,    6139,    6142
    2526,    6137,    6135,    6139,    6142,    5639,    5637,    5145,    2666
    2527,    2655,    5149,    5768,    5769,    6141,    6140,    6144,    6146
    2528,    6141,    6140,    6144,    6146,    6142,    6139,    6143,    6145
    2529,    6142,    6139,    6143,    6145,    2666,    5145,    5752,    5754
    2530,    5769,    5768,    5767,    5770,    6146,    6144,    6148,    6150
    2531,    6146,    6144,    6148,    6150,    6145,    6143,    6147,    6149
    2532,    6145,    6143,    6147,    6149,    5754,    5752,    5751,    5753
    2533,    5770,    5767,    5147,    2656,    6150,    6148,    6152,    6153
    2534,    6150,    6148,    6152,    6153,    6149,    6147,    6151,    6154
    2535,    6149,    6147,    6151,    6154,    5753,    5751,    5143,    2661
    2536,    2656,    5147,    5450,    5451,    6153,    6152,    6114,    6112
    2537,    6153,    6152,    6114,    6112,    6154,    6151,    6113,    6111
    2538,    6154,    6151,    6113,    6111,    2661,    5143,    5446,    5448
    2539,    2624,    5123,    5562,    5563,    6156,    6157,    6160,    6162
    2540,    6156,    6157,    6160,    6162,    6155,    6158,    6159,    6161
    2541,    6155,    6158,    6159,    6161,    2632,    5119,    5530,    5532
    2542,    2627,    5126,    5278,    5279,    6163,    6166,    6110,    6108
    2543,    6163,    6166,    6110,    6108,    6164,    6165,    6109,    6107
    2544,    6164,    6165,    6109,    6107,    2637,    5122,    5274,    5276
    2545,    6034,    6031,    5126,    2627,    6168,    6170,    6166,    6163
    2546,    6168,    6170,    6166,    6163,    6167,    6169,    6165,    6164
    2547,    6167,    6169,    6165,    6164,    6027,    6029,    5122,    2637
    2548,    6033,    6032,    6031,    6034,    6172,    6174,    6170,    6168
    2549,    6172,    6174,    6170,    6168,    6171,    6173,    6169,    6167
    2550,    6171,    6173,    6169,    6167,    6028,    6030,    6029,    6027
    2551,    2626,    5125,    6032,    6033,    6175,    6178,    6174,    6172
    2552,    6175,    6178,    6174,    6172,    6176,    6177,    6173,    6171
    2553,    6176,    6177,    6173,    6171,    2642,    5121,    6030,    6028
    2554,    5900,    5897,    5125,    2626,    6180,    6182,    6178,    6175
    2555,    6180,    6182,    6178,    6175,    6179,    6181,    6177,    6176
    2556,    6179,    6181,    6177,    6176,    5893,    5895,    5121,    2642
    2557,    5899,    5898,    5897,    5900,    6184,    6186,    6182,    6180
    2558,    6184,    6186,    6182,    6180,    6183,    6185,    6181,    6179
    2559,    6183,    6185,    6181,    6179,    5894,    5896,    5895,    5893
    2560,    2625,    5124,    5898,    5899,    6187,    6190,    6186,    6184
    2561,    6187,    6190,    6186,    6184,    6188,    6189,    6185,    6183
    2562,    6188,    6189,    6185,    6183,    2647,    5120,    5896,    5894
    2563,    5564,    5561,    5124,    2625,    6192,    6194,    6190,    6187
    2564,    6192,    6194,    6190,    6187,    6191,    6193,    6189,    6188
    2565,    6191,    6193,    6189,    6188,    5531,    5529,    5120,    2647
    2566,    5563,    5562,    5561,    5564,    6162,    6160,    6194,    6192
    2567,    6162,    6160,    6194,    6192,    6161,    6159,    6193,    6191
    2568,    6161,    6159,    6193,    6191,    5532,    5530,    5529,    5531
    2569,    5084,    2618,    5085,    5086,    6096,    6093,    6106,    6195
    2570,    6096,    6093,    6106,    6195,    6095,    6094,    6105,    6196
    2571,    6095,    6094,    6105,    6196,    5081,    2619,    5082,    5083
    2572,    5273,    5082,    4921,    5303,    6103,    6105,    6199,    6197
    2573,    6103,    6105,    6199,    6197,    6104,    6106,    6200,    6198
    2574,    6104,    6106,    6200,    6198,    5277,    5085,    2703,    5305
    2575,    6197,    6199,    4921,    5303,    6198,    6200,    2703,    5305
    2576,    6157,    6160,    6203,    6201,    5123,    5562,    5584,    2702
    2577,    6158,    6159,    6204,    6202,    6157,    6160,    6203,    6201
    2578,    5119,    5530,    5582,    3096,    6158,    6159,    6204,    6202
    2579,    6202,    6204,    5582,    3096,    6201,    6203,    5584,    2702
    2580,    5530,    5529,    5581,    5582,    6159,    6193,    6205,    6204
    2581,    6159,    6193,    6205,    6204,    6160,    6194,    6206,    6203
    2582,    6160,    6194,    6206,    6203,    5562,    5561,    5583,    5584
    2583,    6204,    6205,    5581,    5582,    6203,    6206,    5583,    5584
    2584,    5529,    5120,    4918,    5581,    6193,    6189,    6207,    6205
    2585,    6193,    6189,    6207,    6205,    6194,    6190,    6208,    6206
    2586,    6194,    6190,    6208,    6206,    5561,    5124,    2767,    5583
    2587,    6205,    6207,    4918,    5581,    6206,    6208,    2767,    5583
    2588,    5445,    5475,    5476,    5446,    6115,    6211,    6209,    6113
    2589,    6115,    6211,    6209,    6113,    6116,    6212,    6210,    6114
    2590,    6116,    6212,    6210,    6114,    5449,    5489,    5490,    5450
    2591,    6211,    5475,    5476,    6209,    6212,    5489,    5490,    6210
    2592,    5183,    5211,    5212,    5184,    6123,    6215,    6213,    6097
    2593,    6123,    6215,    6213,    6097,    6124,    6216,    6214,    6098
    2594,    6124,    6216,    6214,    6098,    5187,    5213,    5214,    5188
    2595,    6215,    5211,    5212,    6213,    6216,    5213,    5214,    6214
    2596,    5144,    2957,    5475,    5445,    6119,    6217,    6211,    6115
    2597,    6119,    6217,    6211,    6115,    6120,    6218,    6212,    6116
    2598,    6120,    6218,    6212,    6116,    5148,    2673,    5489,    5449
    2599,    6217,    2957,    5475,    6211,    6218,    2673,    5489,    6212
    2600,    5446,    5476,    5023,    5143,    6113,    6209,    6219,    6151
    2601,    6113,    6209,    6219,    6151,    6114,    6210,    6220,    6152
    2602,    6114,    6210,    6220,    6152,    5450,    5490,    2708,    5147
    2603,    6209,    5476,    5023,    6219,    6210,    5490,    2708,    6220
    2604,    5751,    5807,    5808,    5752,    6147,    6223,    6221,    6143
    2605,    6147,    6223,    6221,    6143,    6148,    6224,    6222,    6144
    2606,    6148,    6224,    6222,    6144,    5767,    5817,    5818,    5768
    2607,    6223,    5807,    5808,    6221,    6224,    5817,    5818,    6222
    2608,    5143,    5023,    5807,    5751,    6151,    6219,    6223,    6147
    2609,    6151,    6219,    6223,    6147,    6152,    6220,    6224,    6148
    2610,    6152,    6220,    6224,    6148,    5147,    2708,    5817,    5767
    2611,    6219,    5023,    5807,    6223,    6220,    2708,    5817,    6224
    2612,    5752,    5808,    5028,    5145,    6143,    6221,    6225,    6139
    2613,    6143,    6221,    6225,    6139,    6144,    6222,    6226,    6140
    2614,    6144,    6222,    6226,    6140,    5768,    5818,    2713,    5149
    2615,    6221,    5808,    5028,    6225,    6222,    5818,    2713,    6226
    2616,    5637,    5697,    5698,    5638,    6135,    6229,    6227,    6131
    2617,    6135,    6229,    6227,    6131,    6136,    6230,    6228,    6132
    2618,    6136,    6230,    6228,    6132,    5657,    5711,    5712,    5658
    2619,    6229,    5697,    5698,    6227,    6230,    5711,    5712,    6228
    2620,    5145,    5028,    5697,    5637,    6139,    6225,    6229,    6135
    2621,    6139,    6225,    6229,    6135,    6140,    6226,    6230,    6136
    2622,    6140,    6226,    6230,    6136,    5149,    2713,    5711,    5657
    2623,    6225,    5028,    5697,    6229,    6226,    2713,    5711,    6230
    2624,    5638,    5698,    5033,    5146,    6131,    6227,    6231,    6127
    2625,    6131,    6227,    6231,    6127,    6132,    6228,    6232,    6128
    2626,    6132,    6228,    6232,    6128,    5658,    5712,    2718,    5150
    2627,    6227,    5698,    5033,    6231,    6228,    5712,    2718,    6232
    2628,    5146,    5033,    5211,    5183,    6127,    6231,    6215,    6123
    2629,    6127,    6231,    6215,    6123,    6128,    6232,    6216,    6124
    2630,    6128,    6232,    6216,    6124,    5150,    2718,    5213,    5187
    2631,    6231,    5033,    5211,    6215,    6232,    2718,    5213,    6216
    2632,    5120,    5896,    5942,    4918,    6189,    6185,    6233,    6207
    2633,    6189,    6185,    6233,    6207,    6190,    6186,    6234,    6208
    2634,    6190,    6186,    6234,    6208,    5124,    5898,    5944,    2767
    2635,    6207,    6233,    5942,    4918,    6208,    6234,    5944,    2767
    2636,    5896,    5895,    5941,    5942,    6185,    6181,    6235,    6233
    2637,    6185,    6181,    6235,    6233,    6186,    6182,    6236,    6234
    2638,    6186,    6182,    6236,    6234,    5898,    5897,    5943,    5944
    2639,    6233,    6235,    5941,    5942,    6234,    6236,    5943,    5944
    2640,    5895,    5121,    4919,    5941,    6181,    6177,    6237,    6235
    2641,    6181,    6177,    6237,    6235,    6182,    6178,    6238,    6236
    2642,    6182,    6178,    6238,    6236,    5897,    5125,    2766,    5943
    2643,    6235,    6237,    4919,    5941,    6236,    6238,    2766,    5943
    2644,    5121,    6030,    6076,    4919,    6177,    6173,    6239,    6237
    2645,    6177,    6173,    6239,    6237,    6178,    6174,    6240,    6238
    2646,    6178,    6174,    6240,    6238,    5125,    6032,    6078,    2766
    2647,    6237,    6239,    6076,    4919,    6238,    6240,    6078,    2766
    2648,    6030,    6029,    6075,    6076,    6173,    6169,    6241,    6239
    2649,    6173,    6169,    6241,    6239,    6174,    6170,    6242,    6240
    2650,    6174,    6170,    6242,    6240,    6032,    6031,    6077,    6078
    2651,    6239,    6241,    6075,    6076,    6240,    6242,    6077,    6078
    2652,    6029,    5122,    4920,    6075,    6169,    6165,    6243,    6241
    2653,    6169,    6165,    6243,    6241,    6170,    6166,    6244,    6242
    2654,    6170,    6166,    6244,    6242,    6031,    5126,    2765,    6077
    2655,    6241,    6243,    4920,    6075,    6242,    6244,    2765,    6077
    2656,    5122,    5274,    5304,    4920,    6165,    6109,    6245,    6243
    2657,    6165,    6109,    6245,    6243,    6166,    6110,    6246,    6244
    2658,    6166,    6110,    6246,    6244,    5126,    5278,    5306,    2765
    2659,    6243,    6245,    5304,    4920,    6244,    6246,    5306,    2765
    2660,    5274,    5273,    5303,    5304,    6109,    6103,    6197,    6245
    2661,    6109,    6103,    6197,    6245,    6110,    6104,    6198,    6246
    2662,    6110,    6104,    6198,    6246,    5278,    5277,    5305,    5306
    2663,    6245,    6197,    5303,    5304,    6246,    6198,    5305,    5306
    2664,    6106,    6195,    6247,    6200,    5085,    5086,    2728,    2703
    2665,    6105,    6196,    6248,    6199,    6106,    6195,    6247,    6200
    2666,    5082,    5083,    4922,    4921,    6105,    6196,    6248,    6199
    2667,    6199,    6248,    4922,    4921,    6200,    6247,    2728,    2703
    2668,    5184,    5212,    4717,    5081,    6097,    6213,    6249,    6095
    2669,    6097,    6213,    6249,    6095,    6098,    6214,    6250,    6096
    2670,    6098,    6214,    6250,    6096,    5188,    5214,    2723,    5084
    2671,    6213,    5212,    4717,    6249,    6214,    5214,    2723,    6250
    2672,    5081,    4717,    4922,    5083,    6095,    6249,    6248,    6196
    2673,    6095,    6249,    6248,    6196,    6096,    6250,    6247,    6195
    2674,    6096,    6250,    6247,    6195,    5084,    2723,    2728,    5086
    2675,    6249,    4717,    4922,    6248,    6250,    2723,    2728,    6247
    2676,    5276,    5274,    5273,    5275,    6252,    6254,    6256,    6258
    2677,    6252,    6254,    6256,    6258,    6251,    6253,    6255,    6257
    2678,    6251,    6253,    6255,    6257,    5270,    5272,    5271,    5269
    2679,    5081,    2619,    5082,    5083,    6259,    6261,    6263,    6265
    2680,    6259,    6261,    6263,    6265,    6260,    6262,    6264,    6266
    2681,    6260,    6262,    6264,    6266,    5078,    2620,    5079,    5080
    2682,    2619,    5081,    5184,    5186,    6261,    6259,    6268,    6270
    2683,    6261,    6259,    6268,    6270,    6262,    6260,    6267,    6269
    2684,    6262,    6260,    6267,    6269,    2620,    5078,    5182,    5180
    2685,    5893,    5895,    5121,    2642,    6272,    6274,    6276,    6277
    2686,    6272,    6274,    6276,    6277,    6271,    6273,    6275,    6278
    2687,    6271,    6273,    6275,    6278,    5901,    5903,    5117,    2641
    2688,    5894,    5896,    5895,    5893,    6280,    6282,    6274,    6272
    2689,    6280,    6282,    6274,    6272,    6279,    6281,    6273,    6271
    2690,    6279,    6281,    6273,    6271,    5902,    5904,    5903,    5901
    2691,    5186,    5184,    5183,    5185,    6270,    6268,    6284,    6286
    2692,    6270,    6268,    6284,    6286,    6269,    6267,    6283,    6285
    2693,    6269,    6267,    6283,    6285,    5180,    5182,    5181,    5179
    2694,    5640,    5638,    5637,    5639,    6288,    6290,    6292,    6294
    2695,    6288,    6290,    6292,    6294,    6287,    6289,    6291,    6293
    2696,    6287,    6289,    6291,    6293,    5634,    5636,    5635,    5633
    2697,    5639,    5637,    5145,    2666,    6294,    6292,    6296,    6297
    2698,    6294,    6292,    6296,    6297,    6293,    6291,    6295,    6298
    2699,    6293,    6291,    6295,    6298,    5633,    5635,    5141,    2665
    2700,    2666,    5145,    5752,    5754,    6297,    6296,    6300,    6302
    2701,    6297,    6296,    6300,    6302,    6298,    6295,    6299,    6301
    2702,    6298,    6295,    6299,    6301,    2665,    5141,    5750,    5748
    2703,    2661,    5143,    5446,    5448,    6303,    6306,    6308,    6310
    2704,    6303,    6306,    6308,    6310,    6304,    6305,    6307,    6309
    2705,    6304,    6305,    6307,    6309,    2660,    5139,    5442,    5444
    2706,    5448,    5446,    5445,    5447,    6310,    6308,    6312,    6314
    2707,    6310,    6308,    6312,    6314,    6309,    6307,    6311,    6313
    2708,    6309,    6307,    6311,    6313,    5444,    5442,    5441,    5443
    2709,    5447,    5445,    5144,    2649,    6314,    6312,    6316,    6317
    2710,    6314,    6312,    6316,    6317,    6313,    6311,    6315,    6318
    2711,    6313,    6311,    6315,    6318,    5443,    5441,    5140,    2650
    2712,    5754,    5752,    5751,    5753,    6302,    6300,    6320,    6322
    2713,    6302,    6300,    6320,    6322,    6301,    6299,    6319,    6321
    2714,    6301,    6299,    6319,    6321,    5748,    5750,    5749,    5747
    2715,    5753,    5751,    5143,    2661,    6322,    6320,    6306,    6303
    2716,    6322,    6320,    6306,    6303,    6321,    6319,    6305,    6304
    2717,    6321,    6319,    6305,    6304,    5747,    5749,    5139,    2660
    2718,    2671,    5146,    5638,    5640,    6323,    6326,    6290,    6288
    2719,    6323,    6326,    6290,    6288,    6324,    6325,    6289,    6287
    2720,    6324,    6325,    6289,    6287,    2670,    5142,    5636,    5634
    2721,    5185,    5183,    5146,    2671,    6286,    6284,    6326,    6323
    2722,    6286,    6284,    6326,    6323,    6285,    6283,    6325,    6324
    2723,    6285,    6283,    6325,    6324,    5179,    5181,    5142,    2670
    2724,    2632,    5119,    5530,    5532,    6328,    6329,    6332,    6334
    2725,    6328,    6329,    6332,    6334,    6327,    6330,    6331,    6333
    2726,    6327,    6330,    6331,    6333,    2631,    5115,    5528,    5526
    2727,    5532,    5530,    5529,    5531,    6334,    6332,    6336,    6338
    2728,    6334,    6332,    6336,    6338,    6333,    6331,    6335,    6337
    2729,    6333,    6331,    6335,    6337,    5526,    5528,    5527,    5525
    2730,    5531,    5529,    5120,    2647,    6338,    6336,    6340,    6341
    2731,    6338,    6336,    6340,    6341,    6337,    6335,    6339,    6342
    2732,    6337,    6335,    6339,    6342,    5525,    5527,    5116,    2646
    2733,    2647,    5120,    5896,    5894,    6341,    6340,    6282,    6280
    2734,    6341,    6340,    6282,    6280,    6342,    6339,    6281,    6279
    2735,    6342,    6339,    6281,    6279,    2646,    5116,    5904,    5902
    2736,    2642,    5121,    6030,    6028,    6277,    6276,    6344,    6346
    2737,    6277,    6276,    6344,    6346,    6278,    6275,    6343,    6345
    2738,    6278,    6275,    6343,    6345,    2641,    5117,    6038,    6036
    2739,    6028,    6030,    6029,    6027,    6346,    6344,    6348,    6350
    2740,    6346,    6344,    6348,    6350,    6345,    6343,    6347,    6349
    2741,    6345,    6343,    6347,    6349,    6036,    6038,    6037,    6035
    2742,    6027,    6029,    5122,    2637,    6350,    6348,    6352,    6353
    2743,    6350,    6348,    6352,    6353,    6349,    6347,    6351,    6354
    2744,    6349,    6347,    6351,    6354,    6035,    6037,    5118,    2636
    2745,    2637,    5122,    5274,    5276,    6353,    6352,    6254,    6252
    2746,    6353,    6352,    6254,    6252,    6354,    6351,    6253,    6251
    2747,    6354,    6351,    6253,    6251,    2636,    5118,    5272,    5270
    2748,    5275,    5273,    5082,    2619,    6258,    6256,    6263,    6261
    2749,    6258,    6256,    6263,    6261,    6257,    6255,    6264,    6262
    2750,    6257,    6255,    6264,    6262,    5269,    5271,    5079,    2620
    2751,    6263,    6265,    6355,    6357,    5082,    5083,    4922,    4921
    2752,    6264,    6266,    6356,    6358,    6263,    6265,    6355,    6357
    2753,    5079,    5080,    4877,    4876,    6264,    6266,    6356,    6358
    2754,    6358,    6356,    4877,    4876,    6357,    6355,    4922,    4921
    2755,    6037,    5118,    4875,    6079,    6347,    6351,    6361,    6359
    2756,    6347,    6351,    6361,    6359,    6348,    6352,    6362,    6360
    2757,    6348,    6352,    6362,    6360,    6029,    5122,    4920,    6075
    2758,    6359,    6361,    4875,    6079,    6360,    6362,    4920,    6075
    2759,    5903,    5117,    4874,    5945,    6273,    6275,    6365,    6363
    2760,    6273,    6275,    6365,    6363,    6274,    6276,    6366,    6364
    2761,    6274,    6276,    6366,    6364,    5895,    5121,    4919,    5941
    2762,    6363,    6365,    4874,    5945,    6364,    6366,    4919,    5941
    2763,    5527,    5116,    4873,    5579,    6335,    6339,    6369,    6367
    2764,    6335,    6339,    6369,    6367,    6336,    6340,    6370,    6368
    2765,    6336,    6340,    6370,    6368,    5529,    5120,    4918,    5581
    2766,    6367,    6369,    4873,    5579,    6368,    6370,    4918,    5581
    2767,    6329,    6332,    6373,    6371,    5119,    5530,    5582,    3096
    2768,    6330,    6331,    6374,    6372,    6329,    6332,    6373,    6371
    2769,    5115,    5528,    5580,    3095,    6330,    6331,    6374,    6372
    2770,    6372,    6374,    5580,    3095,    6371,    6373,    5582,    3096
    2771,    5528,    5527,    5579,    5580,    6331,    6335,    6367,    6374
    2772,    6331,    6335,    6367,    6374,    6332,    6336,    6368,    6373
    2773,    6332,    6336,    6368,    6373,    5530,    5529,    5581,    5582
    2774,    6374,    6367,    5579,    5580,    6373,    6368,    5581,    5582
    2775,    6268,    6377,    6375,    6259,    5184,    5212,    4717,    5081
    2776,    6267,    6378,    6376,    6260,    6268,    6377,    6375,    6259
    2777,    5182,    5210,    4716,    5078,    6267,    6378,    6376,    6260
    2778,    6378,    5210,    4716,    6376,    6377,    5212,    4717,    6375
    2779,    5181,    5209,    5210,    5182,    6283,    6379,    6378,    6267
    2780,    6283,    6379,    6378,    6267,    6284,    6380,    6377,    6268
    2781,    6284,    6380,    6377,    6268,    5183,    5211,    5212,    5184
    2782,    6379,    5209,    5210,    6378,    6380,    5211,    5212,    6377
    2783,    5635,    5695,    5696,    5636,    6291,    6383,    6381,    6289
    2784,    6291,    6383,    6381,    6289,    6292,    6384,    6382,    6290
    2785,    6292,    6384,    6382,    6290,    5637,    5697,    5698,    5638
    2786,    6383,    5695,    5696,    6381,    6384,    5697,    5698,    6382
    2787,    5141,    5013,    5695,    5635,    6295,    6385,    6383,    6291
    2788,    6295,    6385,    6383,    6291,    6296,    6386,    6384,    6292
    2789,    6296,    6386,    6384,    6292,    5145,    5028,    5697,    5637
    2790,    6385,    5013,    5695,    6383,    6386,    5028,    5697,    6384
    2791,    5442,    5474,    5008,    5139,    6307,    6389,    6387,    6305
    2792,    6307,    6389,    6387,    6305,    6308,    6390,    6388,    6306
    2793,    6308,    6390,    6388,    6306,    5446,    5476,    5023,    5143
    2794,    6389,    5474,    5008,    6387,    6390,    5476,    5023,    6388
    2795,    5441,    5473,    5474,    5442,    6311,    6391,    6389,    6307
    2796,    6311,    6391,    6389,    6307,    6312,    6392,    6390,    6308
    2797,    6312,    6392,    6390,    6308,    5445,    5475,    5476,    5446
    2798,    6391,    5473,    5474,    6389,    6392,    5475,    5476,    6390
    2799,    5140,    2956,    5473,    5441,    6315,    6393,    6391,    6311
    2800,    6315,    6393,    6391,    6311,    6316,    6394,    6392,    6312
    2801,    6316,    6394,    6392,    6312,    5144,    2957,    5475,    5445
    2802,    6393,    2956,    5473,    6391,    6394,    2957,    5475,    6392
    2803,    5749,    5805,    5806,    5750,    6319,    6397,    6395,    6299
    2804,    6319,    6397,    6395,    6299,    6320,    6398,    6396,    6300
    2805,    6320,    6398,    6396,    6300,    5751,    5807,    5808,    5752
    2806,    6397,    5805,    5806,    6395,    6398,    5807,    5808,    6396
    2807,    5139,    5008,    5805,    5749,    6305,    6387,    6397,    6319
    2808,    6305,    6387,    6397,    6319,    6306,    6388,    6398,    6320
    2809,    6306,    6388,    6398,    6320,    5143,    5023,    5807,    5751
    2810,    6387,    5008,    5805,    6397,    6388,    5023,    5807,    6398
    2811,    5750,    5806,    5013,    5141,    6299,    6395,    6385,    6295
    2812,    6299,    6395,    6385,    6295,    6300,    6396,    6386,    6296
    2813,    6300,    6396,    6386,    6296,    5752,    5808,    5028,    5145
    2814,    6395,    5806,    5013,    6385,    6396,    5808,    5028,    6386
    2815,    5142,    5018,    5209,    5181,    6325,    6399,    6379,    6283
    2816,    6325,    6399,    6379,    6283,    6326,    6400,    6380,    6284
    2817,    6326,    6400,    6380,    6284,    5146,    5033,    5211,    5183
    2818,    6399,    5018,    5209,    6379,    6400,    5033,    5211,    6380
    2819,    5636,    5696,    5018,    5142,    6289,    6381,    6399,    6325
    2820,    6289,    6381,    6399,    6325,    6290,    6382,    6400,    6326
    2821,    6290,    6382,    6400,    6326,    5638,    5698,    5033,    5146
    2822,    6381,    5696,    5018,    6399,    6382,    5698,    5033,    6400
    2823,    5116,    5904,    5946,    4873,    6339,    6281,    6401,    6369
    2824,    6339,    6281,    6401,    6369,    6340,    6282,    6402,    6370
    2825,    6340,    6282,    6402,    6370,    5120,    5896,    5942,    4918
    2826,    6369,    6401,    5946,    4873,    6370,    6402,    5942,    4918
    2827,    5904,    5903,    5945,    5946,    6281,    6273,    6363,    6401
    2828,    6281,    6273,    6363,    6401,    6282,    6274,    6364,    6402
    2829,    6282,    6274,    6364,    6402,    5896,    5895,    5941,    5942
    2830,    6401,    6363,    5945,    5946,    6402,    6364,    5941,    5942
    2831,    5117,    6038,    6080,    4874,    6275,    6343,    6403,    6365
    2832,    6275,    6343,    6403,    6365,    6276,    6344,    6404,    6366
    2833,    6276,    6344,    6404,    6366,    5121,    6030,    6076,    4919
    2834,    6365,    6403,    6080,    4874,    6366,    6404,    6076,    4919
    2835,    6038,    6037,    6079,    6080,    6343,    6347,    6359,    6403
    2836,    6343,    6347,    6359,    6403,    6344,    6348,    6360,    6404
    2837,    6344,    6348,    6360,    6404,    6030,    6029,    6075,    6076
    2838,    6403,    6359,    6079,    6080,    6404,    6360,    6075,    6076
    2839,    5118,    5272,    5302,    4875,    6351,    6253,    6405,    6361
    2840,    6351,    6253,    6405,    6361,    6352,    6254,    6406,    6362
    2841,    6352,    6254,    6406,    6362,    5122,    5274,    5304,    4920
    2842,    6361,    6405,    5302,    4875,    6362,    6406,    5304,    4920
    2843,    6259,    6375,    6355,    6265,    5081,    4717,    4922,    5083
    2844,    6260,    6376,    6356,    6266,    6259,    6375,    6355,    6265
    2845,    5078,    4716,    4877,    5080,    6260,    6376,    6356,    6266
    2846,    6376,    4716,    4877,    6356,    6375,    4717,    4922,    6355
    2847,    5271,    5079,    4876,    5301,    6255,    6264,    6358,    6407
    2848,    6255,    6264,    6358,    6407,    6256,    6263,    6357,    6408
    2849,    6256,    6263,    6357,    6408,    5273,    5082,    4921,    5303
    2850,    6407,    6358,    4876,    5301,    6408,    6357,    4921,    5303
    2851,    5272,    5271,    5301,    5302,    6253,    6255,    6407,    6405
    2852,    6253,    6255,    6407,    6405,    6254,    6256,    6408,    6406
    2853,    6254,    6256,    6408,    6406,    5274,    5273,    5303,    5304
    2854,    6405,    6407,    5301,    5302,    6406,    6408,    5303,    5304
    2855,    5270,    5272,    5271,    5269,    6410,    6412,    6414,    6416
    2856,    6410,    6412,    6414,    6416,    6409,    6411,    6413,    6415
    2857,    6409,    6411,    6413,    6415,    5268,    5266,    5265,    5267
    2858,    5078,    2620,    5079,    5080,    6417,    6419,    6421,    6423
    2859,    6417,    6419,    6421,    6423,    6418,    6420,    6422,    6424
    2860,    6418,    6420,    6422,    6424,    5075,    2621,    5076,    5077
    2861,    2620,    5078,    5182,    5180,    6419,    6417,    6426,    6428
    2862,    6419,    6417,    6426,    6428,    6420,    6418,    6425,    6427
    2863,    6420,    6418,    6425,    6427,    2621,    5075,    5176,    5178
    2864,    5901,    5903,    5117,    2641,    6430,    6432,    6434,    6435
    2865,    6430,    6432,    6434,    6435,    6429,    6431,    6433,    6436
    2866,    6429,    6431,    6433,    6436,    5891,    5889,    5113,    2640
    2867,    5902,    5904,    5903,    5901,    6438,    6440,    6432,    6430
    2868,    6438,    6440,    6432,    6430,    6437,    6439,    6431,    6429
    2869,    6437,    6439,    6431,    6429,    5892,    5890,    5889,    5891
    2870,    5180,    5182,    5181,    5179,    6428,    6426,    6442,    6444
    2871,    6428,    6426,    6442,    6444,    6427,    6425,    6441,    6443
    2872,    6427,    6425,    6441,    6443,    5178,    5176,    5175,    5177
    2873,    5634,    5636,    5635,    5633,    6446,    6448,    6450,    6452
    2874,    6446,    6448,    6450,    6452,    6445,    6447,    6449,    6451
    2875,    6445,    6447,    6449,    6451,    5656,    5654,    5653,    5655
    2876,    5633,    5635,    5141,    2665,    6452,    6450,    6454,    6455
    2877,    6452,    6450,    6454,    6455,    6451,    6449,    6453,    6456
    2878,    6451,    6449,    6453,    6456,    5655,    5653,    5137,    2664
    2879,    2665,    5141,    5750,    5748,    6455,    6454,    6458,    6460
    2880,    6455,    6454,    6458,    6460,    6456,    6453,    6457,    6459
    2881,    6456,    6453,    6457,    6459,    2664,    5137,    5764,    5766
    2882,    2660,    5139,    5442,    5444,    6461,    6464,    6466,    6468
    2883,    6461,    6464,    6466,    6468,    6462,    6463,    6465,    6467
    2884,    6462,    6463,    6465,    6467,    2659,    5135,    5438,    5440
    2885,    5444,    5442,    5441,    5443,    6468,    6466,    6470,    6472
    2886,    6468,    6466,    6470,    6472,    6467,    6465,    6469,    6471
    2887,    6467,    6465,    6469,    6471,    5440,    5438,    5437,    5439
    2888,    5443,    5441,    5140,    2650,    6472,    6470,    6474,    6475
    2889,    6472,    6470,    6474,    6475,    6471,    6469,    6473,    6476
    2890,    6471,    6469,    6473,    6476,    5439,    5437,    5136,    2651
    2891,    5748,    5750,    5749,    5747,    6460,    6458,    6478,    6480
    2892,    6460,    6458,    6478,    6480,    6459,    6457,    6477,    6479
    2893,    6459,    6457,    6477,    6479,    5766,    5764,    5763,    5765
    2894,    5747,    5749,    5139,    2660,    6480,    6478,    6464,    6461
    2895,    6480,    6478,    6464,    6461,    6479,    6477,    6463,    6462
    2896,    6479,    6477,    6463,    6462,    5765,    5763,    5135,    2659
    2897,    2670,    5142,    5636,    5634,    6481,    6484,    6448,    6446
    2898,    6481,    6484,    6448,    6446,    6482,    6483,    6447,    6445
    2899,    6482,    6483,    6447,    6445,    2669,    5138,    5654,    5656
    2900,    5179,    5181,    5142,    2670,    6444,    6442,    6484,    6481
    2901,    6444,    6442,    6484,    6481,    6443,    6441,    6483,    6482
    2902,    6443,    6441,    6483,    6482,    5177,    5175,    5138,    2669
    2903,    2631,    5115,    5528,    5526,    6486,    6487,    6490,    6492
    2904,    6486,    6487,    6490,    6492,    6485,    6488,    6489,    6491
    2905,    6485,    6488,    6489,    6491,    2630,    5111,    5522,    5524
    2906,    5526,    5528,    5527,    5525,    6492,    6490,    6494,    6496
    2907,    6492,    6490,    6494,    6496,    6491,    6489,    6493,    6495
    2908,    6491,    6489,    6493,    6495,    5524,    5522,    5521,    5523
    2909,    5525,    5527,    5116,    2646,    6496,    6494,    6498,    6499
    2910,    6496,    6494,    6498,    6499,    6495,    6493,    6497,    6500
    2911,    6495,    6493,    6497,    6500,    5523,    5521,    5112,    2645
    2912,    2646,    5116,    5904,    5902,    6499,    6498,    6440,    6438
    2913,    6499,    6498,    6440,    6438,    6500,    6497,    6439,    6437
    2914,    6500,    6497,    6439,    6437,    2645,    5112,    5890,    5892
    2915,    2641,    5117,    6038,    6036,    6435,    6434,    6502,    6504
    2916,    6435,    6434,    6502,    6504,    6436,    6433,    6501,    6503
    2917,    6436,    6433,    6501,    6503,    2640,    5113,    6024,    6026
    2918,    6036,    6038,    6037,    6035,    6504,    6502,    6506,    6508
    2919,    6504,    6502,    6506,    6508,    6503,    6501,    6505,    6507
    2920,    6503,    6501,    6505,    6507,    6026,    6024,    6023,    6025
    2921,    6035,    6037,    5118,    2636,    6508,    6506,    6510,    6511
    2922,    6508,    6506,    6510,    6511,    6507,    6505,    6509,    6512
    2923,    6507,    6505,    6509,    6512,    6025,    6023,    5114,    2635
    2924,    2636,    5118,    5272,    5270,    6511,    6510,    6412,    6410
    2925,    6511,    6510,    6412,    6410,    6512,    6509,    6411,    6409
    2926,    6512,    6509,    6411,    6409,    2635,    5114,    5266,    5268
    2927,    5269,    5271,    5079,    2620,    6416,    6414,    6421,    6419
    2928,    6416,    6414,    6421,    6419,    6415,    6413,    6422,    6420
    2929,    6415,    6413,    6422,    6420,    5267,    5265,    5076,    2621
    2930,    6421,    6423,    6513,    6515,    5079,    5080,    4877,    4876
    2931,    6422,    6424,    6514,    6516,    6421,    6423,    6513,    6515
    2932,    5076,    5077,    4832,    4831,    6422,    6424,    6514,    6516
    2933,    6516,    6514,    4832,    4831,    6515,    6513,    4877,    4876
    2934,    6023,    5114,    4830,    6073,    6505,    6509,    6519,    6517
    2935,    6505,    6509,    6519,    6517,    6506,    6510,    6520,    6518
    2936,    6506,    6510,    6520,    6518,    6037,    5118,    4875,    6079
    2937,    6517,    6519,    4830,    6073,    6518,    6520,    4875,    6079
    2938,    5889,    5113,    4829,    5939,    6431,    6433,    6523,    6521
    2939,    6431,    6433,    6523,    6521,    6432,    6434,    6524,    6522
    2940,    6432,    6434,    6524,    6522,    5903,    5117,    4874,    5945
    2941,    6521,    6523,    4829,    5939,    6522,    6524,    4874,    5945
    2942,    5521,    5112,    4828,    5577,    6493,    6497,    6527,    6525
    2943,    6493,    6497,    6527,    6525,    6494,    6498,    6528,    6526
    2944,    6494,    6498,    6528,    6526,    5527,    5116,    4873,    5579
    2945,    6525,    6527,    4828,    5577,    6526,    6528,    4873,    5579
    2946,    6487,    6490,    6531,    6529,    5115,    5528,    5580,    3095
    2947,    6488,    6489,    6532,    6530,    6487,    6490,    6531,    6529
    2948,    5111,    5522,    5578,    3094,    6488,    6489,    6532,    6530
    2949,    6530,    6532,    5578,    3094,    6529,    6531,    5580,    3095
    2950,    5522,    5521,    5577,    5578,    6489,    6493,    6525,    6532
    2951,    6489,    6493,    6525,    6532,    6490,    6494,    6526,    6531
    2952,    6490,    6494,    6526,    6531,    5528,    5527,    5579,    5580
    2953,    6532,    6525,    5577,    5578,    6531,    6526,    5579,    5580
    2954,    6426,    6535,    6533,    6417,    5182,    5210,    4716,    5078
    2955,    6425,    6536,    6534,    6418,    6426,    6535,    6533,    6417
    2956,    5176,    5216,    4715,    5075,    6425,    6536,    6534,    6418
    2957,    6536,    5216,    4715,    6534,    6535,    5210,    4716,    6533
    2958,    5175,    5215,    5216,    5176,    6441,    6537,    6536,    6425
    2959,    6441,    6537,    6536,    6425,    6442,    6538,    6535,    6426
    2960,    6442,    6538,    6535,    6426,    5181,    5209,    5210,    5182
    2961,    6537,    5215,    5216,    6536,    6538,    5209,    5210,    6535
    2962,    5653,    5709,    5710,    5654,    6449,    6541,    6539,    6447
    2963,    6449,    6541,    6539,    6447,    6450,    6542,    6540,    6448
    2964,    6450,    6542,    6540,    6448,    5635,    5695,    5696,    5636
    2965,    6541,    5709,    5710,    6539,    6542,    5695,    5696,    6540
    2966,    5137,    4998,    5709,    5653,    6453,    6543,    6541,    6449
    2967,    6453,    6543,    6541,    6449,    6454,    6544,    6542,    6450
    2968,    6454,    6544,    6542,    6450,    5141,    5013,    5695,    5635
    2969,    6543,    4998,    5709,    6541,    6544,    5013,    5695,    6542
    2970,    5438,    5488,    4993,    5135,    6465,    6547,    6545,    6463
    2971,    6465,    6547,    6545,    6463,    6466,    6548,    6546,    6464
    2972,    6466,    6548,    6546,    6464,    5442,    5474,    5008,    5139
    2973,    6547,    5488,    4993,    6545,    6548,    5474,    5008,    6546
    2974,    5437,    5487,    5488,    5438,    6469,    6549,    6547,    6465
    2975,    6469,    6549,    6547,    6465,    6470,    6550,    6548,    6466
    2976,    6470,    6550,    6548,    6466,    5441,    5473,    5474,    5442
    2977,    6549,    5487,    5488,    6547,    6550,    5473,    5474,    6548
    2978,    5136,    2955,    5487,    5437,    6473,    6551,    6549,    6469
    2979,    6473,    6551,    6549,    6469,    6474,    6552,    6550,    6470
    2980,    6474,    6552,    6550,    6470,    5140,    2956,    5473,    5441
    2981,    6551,    2955,    5487,    6549,    6552,    2956,    5473,    6550
    2982,    5763,    5815,    5816,    5764,    6477,    6555,    6553,    6457
    2983,    6477,    6555,    6553,    6457,    6478,    6556,    6554,    6458
    2984,    6478,    6556,    6554,    6458,    5749,    5805,    5806,    5750
    2985,    6555,    5815,    5816,    6553,    6556,    5805,    5806,    6554
    2986,    5135,    4993,    5815,    5763,    6463,    6545,    6555,    6477
    2987,    6463,    6545,    6555,    6477,    6464,    6546,    6556,    6478
    2988,    6464,    6546,    6556,    6478,    5139,    5008,    5805,    5749
    2989,    6545,    4993,    5815,    6555,    6546,    5008,    5805,    6556
    2990,    5764,    5816,    4998,    5137,    6457,    6553,    6543,    6453
    2991,    6457,    6553,    6543,    6453,    6458,    6554,    6544,    6454
    2992,    6458,    6554,    6544,    6454,    5750,    5806,    5013,    5141
    2993,    6553,    5816,    4998,    6543,    6554,    5806,    5013,    6544
    2994,    5138,    5003,    5215,    5175,    6483,    6557,    6537,    6441
    2995,    6483,    6557,    6537,    6441,    6484,    6558,    6538,    6442
    2996,    6484,    6558,    6538,    6442,    5142,    5018,    5209,    5181
    2997,    6557,    5003,    5215,    6537,    6558,    5018,    5209,    6538
    2998,    5654,    5710,    5003,    5138,    6447,    6539,    6557,    6483
    2999,    6447,    6539,    6557,    6483,    6448,    6540,    6558,    6484
    3000,    6448,    6540,    6558,    6484,    5636,    5696,    5018,    5142
    3001,    6539,    5710,    5003,    6557,    6540,    5696,    5018,    6558
    3002,    5112,    5890,    5940,    4828,    6497,    6439,    6559,    6527
    3003,    6497,    6439,    6559,    6527,    6498,    6440,    6560,    6528
    3004,    6498,    6440,    6560,    6528,    5116,    5904,    5946,    4873
    3005,    6527,    6559,    5940,    4828,    6528,    6560,    5946,    4873
    3006,    5890,    5889,    5939,    5940,    6439,    6431,    6521,    6559
    3007,    6439,    6431,    6521,    6559,    6440,    6432,    6522,    6560
    3008,    6440,    6432,    6522,    6560,    5904,    5903,    5945,    5946
    3009,    6559,    6521,    5939,    5940,    6560,    6522,    5945,    5946
    3010,    5113,    6024,    6074,    4829,    6433,    6501,    6561,    6523
    3011,    6433,    6501,    6561,    6523,    6434,    6502,    6562,    6524
    3012,    6434,    6502,    6562,    6524,    5117,    6038,    6080,    4874
    3013,    6523,    6561,    6074,    4829,    6524,    6562,    6080,    4874
    3014,    6024,    6023,    6073,    6074,    6501,    6505,    6517,    6561
    3015,    6501,    6505,    6517,    6561,    6502,    6506,    6518,    6562
    3016,    6502,    6506,    6518,    6562,    6038,    6037,    6079,    6080
    3017,    6561,    6517,    6073,    6074,    6562,    6518,    6079,    6080
    3018,    5114,    5266,    5300,    4830,    6509,    6411,    6563,    6519
    3019,    6509,    6411,    6563,    6519,    6510,    6412,    6564,    6520
    3020,    6510,    6412,    6564,    6520,    5118,    5272,    5302,    4875
    3021,    6519,    6563,    5300,    4830,    6520,    6564,    5302,    4875
    3022,    6417,    6533,    6513,    6423,    5078,    4716,    4877,    5080
    3023,    6418,    6534,    6514,    6424,    6417,    6533,    6513,    6423
    3024,    5075,    4715,    4832,    5077,    6418,    6534,    6514,    6424
    3025,    6534,    4715,    4832,    6514,    6533,    4716,    4877,    6513
    3026,    5265,    5076,    4831,    5299,    6413,    6422,    6516,    6565
    3027,    6413,    6422,    6516,    6565,    6414,    6421,    6515,    6566
    3028,    6414,    6421,    6515,    6566,    5271,    5079,    4876,    5301
    3029,    6565,    6516,    4831,    5299,    6566,    6515,    4876,    5301
    3030,    5266,    5265,    5299,    5300,    6411,    6413,    6565,    6563
    3031,    6411,    6413,    6565,    6563,    6412,    6414,    6566,    6564
    3032,    6412,    6414,    6566,    6564,    5272,    5271,    5301,    5302
    3033,    6563,    6565,    5299,    5300,    6564,    6566,    5301,    5302
    3034,    5268,    5266,    5265,    5267,    6568,    6570,    6572,    6574
    3035,    6568,    6570,    6572,    6574,    6567,    6569,    6571,    6573
    3036,    6567,    6569,    6571,    6573,    5262,    5264,    5263,    5261
    3037,    5075,    2621,    5076,    5077,    6575,    6577,    6579,    6581
    3038,    6575,    6577,    6579,    6581,    6576,    6578,    6580,    6582
    3039,    6576,    6578,    6580,    6582,    5072,    2622,    5073,    5074
    3040,    2621,    5075,    5176,    5178,    6577,    6575,    6584,    6586
    3041,    6577,    6575,    6584,    6586,    6578,    6576,    6583,    6585
    3042,    6578,    6576,    6583,    6585,    2622,    5072,    5172,    5174
    3043,    5891,    5889,    5113,    2640,    6588,    6590,    6592,    6593
    3044,    6588,    6590,    6592,    6593,    6587,    6589,    6591,    6594
    3045,    6587,    6589,    6591,    6594,    5887,    5885,    5109,    2639
    3046,    5892,    5890,    5889,    5891,    6596,    6598,    6590,    6588
    3047,    6596,    6598,    6590,    6588,    6595,    6597,    6589,    6587
    3048,    6595,    6597,    6589,    6587,    5888,    5886,    5885,    5887
    3049,    2630,    5111,    5522,    5524,    6600,    6601,    6604,    6606
    3050,    6600,    6601,    6604,    6606,    6599,    6602,    6603,    6605
    3051,    6599,    6602,    6603,    6605,    2629,    5107,    5520,    5518
    3052,    5524,    5522,    5521,    5523,    6606,    6604,    6608,    6610
    3053,    6606,    6604,    6608,    6610,    6605,    6603,    6607,    6609
    3054,    6605,    6603,    6607,    6609,    5518,    5520,    5519,    5517
    3055,    5523,    5521,    5112,    2645,    6610,    6608,    6612,    6613
    3056,    6610,    6608,    6612,    6613,    6609,    6607,    6611,    6614
    3057,    6609,    6607,    6611,    6614,    5517,    5519,    5108,    2644
    3058,    2645,    5112,    5890,    5892,    6613,    6612,    6598,    6596
    3059,    6613,    6612,    6598,    6596,    6614,    6611,    6597,    6595
    3060,    6614,    6611,    6597,    6595,    2644,    5108,    5886,    5888
    3061,    5178,    5176,    5175,    5177,    6586,    6584,    6616,    6618
    3062,    6586,    6584,    6616,    6618,    6585,    6583,    6615,    6617
    3063,    6585,    6583,    6615,    6617,    5174,    5172,    5171,    5173
    3064,    5656,    5654,    5653,    5655,    6620,    6622,    6624,    6626
    3065,    6620,    6622,    6624,    6626,    6619,    6621,    6623,    6625
    3066,    6619,    6621,    6623,    6625,    5652,    5650,    5649,    5651
    3067,    5655,    5653,    5137,    2664,    6626,    6624,    6628,    6629
    3068,    6626,    6624,    6628,    6629,    6625,    6623,    6627,    6630
    3069,    6625,    6623,    6627,    6630,    5651,    5649,    5133,    2663
    3070,    2664,    5137,    5764,    5766,    6629,    6628,    6632,    6634
    3071,    6629,    6628,    6632,    6634,    6630,    6627,    6631,    6633
    3072,    6630,    6627,    6631,    6633,    2663,    5133,    5760,    5762
    3073,    2659,    5135,    5438,    5440,    6635,    6638,    6640,    6642
    3074,    6635,    6638,    6640,    6642,    6636,    6637,    6639,    6641
    3075,    6636,    6637,    6639,    6641,    2658,    5131,    5434,    5436
    3076,    5440,    5438,    5437,    5439,    6642,    6640,    6644,    6646
    3077,    6642,    6640,    6644,    6646,    6641,    6639,    6643,    6645
    3078,    6641,    6639,    6643,    6645,    5436,    5434,    5433,    5435
    3079,    5439,    5437,    5136,    2651,    6646,    6644,    6648,    6649
    3080,    6646,    6644,    6648,    6649,    6645,    6643,    6647,    6650
    3081,    6645,    6643,    6647,    6650,    5435,    5433,    5132,    2652
    3082,    5766,    5764,    5763,    5765,    6634,    6632,    6652,    6654
    3083,    6634,    6632,    6652,    6654,    6633,    6631,    6651,    6653
    3084,    6633,    6631,    6651,    6653,    5762,    5760,    5759,    5761
    3085,    5765,    5763,    5135,    2659,    6654,    6652,    6638,    6635
    3086,    6654,    6652,    6638,    6635,    6653,    6651,    6637,    6636
    3087,    6653,    6651,    6637,    6636,    5761,    5759,    5131,    2658
    3088,    2669,    5138,    5654,    5656,    6655,    6658,    6622,    6620
    3089,    6655,    6658,    6622,    6620,    6656,    6657,    6621,    6619
    3090,    6656,    6657,    6621,    6619,    2668,    5134,    5650,    5652
    3091,    5177,    5175,    5138,    2669,    6618,    6616,    6658,    6655
    3092,    6618,    6616,    6658,    6655,    6617,    6615,    6657,    6656
    3093,    6617,    6615,    6657,    6656,    5173,    5171,    5134,    2668
    3094,    2640,    5113,    6024,    6026,    6593,    6592,    6660,    6662
    3095,    6593,    6592,    6660,    6662,    6594,    6591,    6659,    6661
    3096,    6594,    6591,    6659,    6661,    2639,    5109,    6020,    6022
    3097,    6026,    6024,    6023,    6025,    6662,    6660,    6664,    6666
    3098,    6662,    6660,    6664,    6666,    6661,    6659,    6663,    6665
    3099,    6661,    6659,    6663,    6665,    6022,    6020,    6019,    6021
    3100,    6025,    6023,    5114,    2635,    6666,    6664,    6668,    6669
    3101,    6666,    6664,    6668,    6669,    6665,    6663,    6667,    6670
    3102,    6665,    6663,    6667,    6670,    6021,    6019,    5110,    2634
    3103,    2635,    5114,    5266,    5268,    6669,    6668,    6570,    6568
    3104,    6669,    6668,    6570,    6568,    6670,    6667,    6569,    6567
    3105,    6670,    6667,    6569,    6567,    2634,    5110,    5264,    5262
    3106,    5267,    5265,    5076,    2621,    6574,    6572,    6579,    6577
    3107,    6574,    6572,    6579,    6577,    6573,    6571,    6580,    6578
    3108,    6573,    6571,    6580,    6578,    5261,    5263,    5073,    2622
    3109,    6579,    6581,    6671,    6673,    5076,    5077,    4832,    4831
    3110,    6580,    6582,    6672,    6674,    6579,    6581,    6671,    6673
    3111,    5073,    5074,    4787,    4786,    6580,    6582,    6672,    6674
    3112,    6674,    6672,    4787,    4786,    6673,    6671,    4832,    4831
    3113,    6019,    5110,    4785,    6071,    6663,    6667,    6677,    6675
    3114,    6663,    6667,    6677,    6675,    6664,    6668,    6678,    6676
    3115,    6664,    6668,    6678,    6676,    6023,    5114,    4830,    6073
    3116,    6675,    6677,    4785,    6071,    6676,    6678,    4830,    6073
    3117,    5885,    5109,    4784,    5937,    6589,    6591,    6681,    6679
    3118,    6589,    6591,    6681,    6679,    6590,    6592,    6682,    6680
    3119,    6590,    6592,    6682,    6680,    5889,    5113,    4829,    5939
    3120,    6679,    6681,    4784,    5937,    6680,    6682,    4829,    5939
    3121,    6584,    6685,    6683,    6575,    5176,    5216,    4715,    5075
    3122,    6583,    6686,    6684,    6576,    6584,    6685,    6683,    6575
    3123,    5172,    5202,    4714,    5072,    6583,    6686,    6684,    6576
    3124,    6686,    5202,    4714,    6684,    6685,    5216,    4715,    6683
    3125,    5171,    5201,    5202,    5172,    6615,    6687,    6686,    6583
    3126,    6615,    6687,    6686,    6583,    6616,    6688,    6685,    6584
    3127,    6616,    6688,    6685,    6584,    5175,    5215,    5216,    5176
    3128,    6687,    5201,    5202,    6686,    6688,    5215,    5216,    6685
    3129,    5649,    5708,    5707,    5650,    6623,    6691,    6689,    6621
    3130,    6623,    6691,    6689,    6621,    6624,    6692,    6690,    6622
    3131,    6624,    6692,    6690,    6622,    5653,    5709,    5710,    5654
    3132,    6691,    5708,    5707,    6689,    6692,    5709,    5710,    6690
    3133,    5133,    4983,    5708,    5649,    6627,    6693,    6691,    6623
    3134,    6627,    6693,    6691,    6623,    6628,    6694,    6692,    6624
    3135,    6628,    6694,    6692,    6624,    5137,    4998,    5709,    5653
    3136,    6693,    4983,    5708,    6691,    6694,    4998,    5709,    6692
    3137,    5434,    5485,    4978,    5131,    6639,    6697,    6695,    6637
    3138,    6639,    6697,    6695,    6637,    6640,    6698,    6696,    6638
    3139,    6640,    6698,    6696,    6638,    5438,    5488,    4993,    5135
    3140,    6697,    5485,    4978,    6695,    6698,    5488,    4993,    6696
    3141,    5433,    5486,    5485,    5434,    6643,    6699,    6697,    6639
    3142,    6643,    6699,    6697,    6639,    6644,    6700,    6698,    6640
    3143,    6644,    6700,    6698,    6640,    5437,    5487,    5488,    5438
    3144,    6699,    5486,    5485,    6697,    6700,    5487,    5488,    6698
    3145,    5132,    2954,    5486,    5433,    6647,    6701,    6699,    6643
    3146,    6647,    6701,    6699,    6643,    6648,    6702,    6700,    6644
    3147,    6648,    6702,    6700,    6644,    5136,    2955,    5487,    5437
    3148,    6701,    2954,    5486,    6699,    6702,    2955,    5487,    6700
    3149,    5759,    5814,    5813,    5760,    6651,    6705,    6703,    6631
    3150,    6651,    6705,    6703,    6631,    6652,    6706,    6704,    6632
    3151,    6652,    6706,    6704,    6632,    5763,    5815,    5816,    5764
    3152,    6705,    5814,    5813,    6703,    6706,    5815,    5816,    6704
    3153,    5131,    4978,    5814,    5759,    6637,    6695,    6705,    6651
    3154,    6637,    6695,    6705,    6651,    6638,    6696,    6706,    6652
    3155,    6638,    6696,    6706,    6652,    5135,    4993,    5815,    5763
    3156,    6695,    4978,    5814,    6705,    6696,    4993,    5815,    6706
    3157,    5760,    5813,    4983,    5133,    6631,    6703,    6693,    6627
    3158,    6631,    6703,    6693,    6627,    6632,    6704,    6694,    6628
    3159,    6632,    6704,    6694,    6628,    5764,    5816,    4998,    5137
    3160,    6703,    5813,    4983,    6693,    6704,    5816,    4998,    6694
    3161,    5134,    4988,    5201,    5171,    6657,    6707,    6687,    6615
    3162,    6657,    6707,    6687,    6615,    6658,    6708,    6688,    6616
    3163,    6658,    6708,    6688,    6616,    5138,    5003,    5215,    5175
    3164,    6707,    4988,    5201,    6687,    6708,    5003,    5215,    6688
    3165,    5650,    5707,    4988,    5134,    6621,    6689,    6707,    6657
    3166,    6621,    6689,    6707,    6657,    6622,    6690,    6708,    6658
    3167,    6622,    6690,    6708,    6658,    5654,    5710,    5003,    5138
    3168,    6689,    5707,    4988,    6707,    6690,    5710,    5003,    6708
    3169,    5519,    5108,    4783,    5575,    6607,    6611,    6711,    6709
    3170,    6607,    6611,    6711,    6709,    6608,    6612,    6712,    6710
    3171,    6608,    6612,    6712,    6710,    5521,    5112,    4828,    5577
    3172,    6709,    6711,    4783,    5575,    6710,    6712,    4828,    5577
    3173,    6601,    6604,    6715,    6713,    5111,    5522,    5578,    3094
    3174,    6602,    6603,    6716,    6714,    6601,    6604,    6715,    6713
    3175,    5107,    5520,    5576,    3093,    6602,    6603,    6716,    6714
    3176,    6714,    6716,    5576,    3093,    6713,    6715,    5578,    3094
    3177,    5520,    5519,    5575,    5576,    6603,    6607,    6709,    6716
    3178,    6603,    6607,    6709,    6716,    6604,    6608,    6710,    6715
    3179,    6604,    6608,    6710,    6715,    5522,    5521,    5577,    5578
    3180,    6716,    6709,    5575,    5576,    6715,    6710,    5577,    5578
    3181,    5108,    5886,    5938,    4783,    6611,    6597,    6717,    6711
    3182,    6611,    6597,    6717,    6711,    6612,    6598,    6718,    6712
    3183,    6612,    6598,    6718,    6712,    5112,    5890,    5940,    4828
    3184,    6711,    6717,    5938,    4783,    6712,    6718,    5940,    4828
    3185,    5886,    5885,    5937,    5938,    6597,    6589,    6679,    6717
    3186,    6597,    6589,    6679,    6717,    6598,    6590,    6680,    6718
    3187,    6598,    6590,    6680,    6718,    5890,    5889,    5939,    5940
    3188,    6717,    6679,    5937,    5938,    6718,    6680,    5939,    5940
    3189,    5109,    6020,    6072,    4784,    6591,    6659,    6719,    6681
    3190,    6591,    6659,    6719,    6681,    6592,    6660,    6720,    6682
    3191,    6592,    6660,    6720,    6682,    5113,    6024,    6074,    4829
    3192,    6681,    6719,    6072,    4784,    6682,    6720,    6074,    4829
    3193,    6020,    6019,    6071,    6072,    6659,    6663,    6675,    6719
    3194,    6659,    6663,    6675,    6719,    6660,    6664,    6676,    6720
    3195,    6660,    6664,    6676,    6720,    6024,    6023,    6073,    6074
    3196,    6719,    6675,    6071,    6072,    6720,    6676,    6073,    6074
    3197,    5110,    5264,    5298,    4785,    6667,    6569,    6721,    6677
    3198,    6667,    6569,    6721,    6677,    6668,    6570,    6722,    6678
    3199,    6668,    6570,    6722,    6678,    5114,    5266,    5300,    4830
    3200,    6677,    6721,    5298,    4785,    6678,    6722,    5300,    4830
    3201,    6575,    6683,    6671,    6581,    5075,    4715,    4832,    5077
    3202,    6576,    6684,    6672,    6582,    6575,    6683,    6671,    6581
    3203,    5072,    4714,    4787,    5074,    6576,    6684,    6672,    6582
    3204,    6684,    4714,    4787,    6672,    6683,    4715,    4832,    6671
    3205,    5263,    5073,    4786,    5297,    6571,    6580,    6674,    6723
    3206,    6571,    6580,    6674,    6723,    6572,    6579,    6673,    6724
    3207,    6572,    6579,    6673,    6724,    5265,    5076,    4831,    5299
    3208,    6723,    6674,    4786,    5297,    6724,    6673,    4831,    5299
    3209,    5264,    5263,    5297,    5298,    6569,    6571,    6723,    6721
    3210,    6569,    6571,    6723,    6721,    6570,    6572,    6724,    6722
    3211,    6570,    6572,    6724,    6722,    5266,    5265,    5299,    5300
    3212,    6721,    6723,    5297,    5298,    6722,    6724,    5299,    5300
    3213,    5262,    5264,    5263,    5261,    6726,    6728,    6730,    6732
    3214,    6726,    6728,    6730,    6732,    6725,    6727,    6729,    6731
    3215,    6725,    6727,    6729,    6731,    5236,    5234,    5233,    5235
    3216,    5072,    2622,    5073,    5074,    6733,    6735,    6737,    6739
    3217,    6733,    6735,    6737,    6739,    6734,    6736,    6738,    6740
    3218,    6734,    6736,    6738,    6740,    5069,    2623,    5070,    5071
    3219,    2622,    5072,    5172,    5174,    6735,    6733,    6742,    6744
    3220,    6735,    6733,    6742,    6744,    6736,    6734,    6741,    6743
    3221,    6736,    6734,    6741,    6743,    2623,    5069,    5170,    5168
    3222,    6022,    6020,    6019,    6021,    6746,    6748,    6750,    6752
    3223,    6746,    6748,    6750,    6752,    6745,    6747,    6749,    6751
    3224,    6745,    6747,    6749,    6751,    6018,    6015,    6016,    6017
    3225,    6021,    6019,    5110,    2634,    6752,    6750,    6754,    6755
    3226,    6752,    6750,    6754,    6755,    6751,    6749,    6753,    6756
    3227,    6751,    6749,    6753,    6756,    6017,    6016,    5106,    2633
    3228,    2639,    5109,    6020,    6022,    6757,    6760,    6748,    6746
    3229,    6757,    6760,    6748,    6746,    6758,    6759,    6747,    6745
    3230,    6758,    6759,    6747,    6745,    2638,    5105,    6015,    6018
    3231,    5887,    5885,    5109,    2639,    6762,    6764,    6760,    6757
    3232,    6762,    6764,    6760,    6757,    6761,    6763,    6759,    6758
    3233,    6761,    6763,    6759,    6758,    5883,    5882,    5105,    2638
    3234,    5174,    5172,    5171,    5173,    6744,    6742,    6766,    6768
    3235,    6744,    6742,    6766,    6768,    6743,    6741,    6765,    6767
    3236,    6743,    6741,    6765,    6767,    5168,    5170,    5169,    5167
    3237,    5652,    5650,    5649,    5651,    6770,    6772,    6774,    6776
    3238,    6770,    6772,    6774,    6776,    6769,    6771,    6773,    6775
    3239,    6769,    6771,    6773,    6775,    5648,    5645,    5646,    5647
    3240,    2663,    5133,    5760,    5762,    6777,    6780,    6782,    6784
    3241,    6777,    6780,    6782,    6784,    6778,    6779,    6781,    6783
    3242,    6778,    6779,    6781,    6783,    2662,    5129,    5755,    5758
    3243,    5762,    5760,    5759,    5761,    6784,    6782,    6786,    6788
    3244,    6784,    6782,    6786,    6788,    6783,    6781,    6785,    6787
    3245,    6783,    6781,    6785,    6787,    5758,    5755,    5756,    5757
    3246,    2658,    5131,    5434,    5436,    6789,    6792,    6794,    6796
    3247,    6789,    6792,    6794,    6796,    6790,    6791,    6793,    6795
    3248,    6790,    6791,    6793,    6795,    2657,    5127,    5425,    5428
    3249,    5435,    5433,    5132,    2652,    6798,    6800,    6802,    6803
    3250,    6798,    6800,    6802,    6803,    6797,    6799,    6801,    6804
    3251,    6797,    6799,    6801,    6804,    5427,    5426,    5128,    2653
    3252,    5436,    5434,    5433,    5435,    6796,    6794,    6800,    6798
    3253,    6796,    6794,    6800,    6798,    6795,    6793,    6799,    6797
    3254,    6795,    6793,    6799,    6797,    5428,    5425,    5426,    5427
    3255,    5761,    5759,    5131,    2658,    6788,    6786,    6792,    6789
    3256,    6788,    6786,    6792,    6789,    6787,    6785,    6791,    6790
    3257,    6787,    6785,    6791,    6790,    5757,    5756,    5127,    2657
    3258,    5651,    5649,    5133,    2663,    6776,    6774,    6780,    6777
    3259,    6776,    6774,    6780,    6777,    6775,    6773,    6779,    6778
    3260,    6775,    6773,    6779,    6778,    5647,    5646,    5129,    2662
    3261,    2668,    5134,    5650,    5652,    6805,    6808,    6772,    6770
    3262,    6805,    6808,    6772,    6770,    6806,    6807,    6771,    6769
    3263,    6806,    6807,    6771,    6769,    2667,    5130,    5645,    5648
    3264,    5173,    5171,    5134,    2668,    6768,    6766,    6808,    6805
    3265,    6768,    6766,    6808,    6805,    6767,    6765,    6807,    6806
    3266,    6767,    6765,    6807,    6806,    5167,    5169,    5130,    2667
    3267,    5518,    5520,    5519,    5517,    6810,    6812,    6814,    6816
    3268,    6810,    6812,    6814,    6816,    6809,    6811,    6813,    6815
    3269,    6809,    6811,    6813,    6815,    5512,    5509,    5510,    5511
    3270,    5517,    5519,    5108,    2644,    6816,    6814,    6818,    6819
    3271,    6816,    6814,    6818,    6819,    6815,    6813,    6817,    6820
    3272,    6815,    6813,    6817,    6820,    5511,    5510,    5104,    2643
    3273,    2629,    5107,    5520,    5518,    6822,    6823,    6812,    6810
    3274,    6822,    6823,    6812,    6810,    6821,    6824,    6811,    6809
    3275,    6821,    6824,    6811,    6809,    2628,    5103,    5509,    5512
    3276,    5888,    5886,    5885,    5887,    6826,    6828,    6764,    6762
    3277,    6826,    6828,    6764,    6762,    6825,    6827,    6763,    6761
    3278,    6825,    6827,    6763,    6761,    5884,    5881,    5882,    5883
    3279,    2644,    5108,    5886,    5888,    6819,    6818,    6828,    6826
    3280,    6819,    6818,    6828,    6826,    6820,    6817,    6827,    6825
    3281,    6820,    6817,    6827,    6825,    2643,    5104,    5881,    5884
    3282,    2634,    5110,    5264,    5262,    6755,    6754,    6728,    6726
    3283,    6755,    6754,    6728,    6726,    6756,    6753,    6727,    6725
    3284,    6756,    6753,    6727,    6725,    2633,    5106,    5234,    5236
    3285,    5261,    5263,    5073,    2622,    6732,    6730,    6737,    6735
    3286,    6732,    6730,    6737,    6735,    6731,    6729,    6738,    6736
    3287,    6731,    6729,    6738,    6736,    5235,    5233,    5070,    2623
    3288,    6737,    6739,    6829,    6831,    5073,    5074,    4787,    4786
    3289,    6738,    6740,    6830,    6832,    6737,    6739,    6829,    6831
    3290,    5070,    5071,    4742,    4741,    6738,    6740,    6830,    6832
    3291,    6832,    6830,    4742,    4741,    6831,    6829,    4787,    4786
    3292,    6016,    5106,    4740,    6082,    6749,    6753,    6835,    6833
    3293,    6749,    6753,    6835,    6833,    6750,    6754,    6836,    6834
    3294,    6750,    6754,    6836,    6834,    6019,    5110,    4785,    6071
    3295,    6833,    6835,    4740,    6082,    6834,    6836,    4785,    6071
    3296,    6015,    6016,    6082,    6081,    6747,    6749,    6833,    6837
    3297,    6747,    6749,    6833,    6837,    6748,    6750,    6834,    6838
    3298,    6748,    6750,    6834,    6838,    6020,    6019,    6071,    6072
    3299,    6837,    6833,    6082,    6081,    6838,    6834,    6071,    6072
    3300,    5105,    6015,    6081,    4739,    6759,    6747,    6837,    6839
    3301,    6759,    6747,    6837,    6839,    6760,    6748,    6838,    6840
    3302,    6760,    6748,    6838,    6840,    5109,    6020,    6072,    4784
    3303,    6839,    6837,    6081,    4739,    6840,    6838,    6072,    4784
    3304,    5510,    5104,    4738,    5572,    6813,    6817,    6843,    6841
    3305,    6813,    6817,    6843,    6841,    6814,    6818,    6844,    6842
    3306,    6814,    6818,    6844,    6842,    5519,    5108,    4783,    5575
    3307,    6841,    6843,    4738,    5572,    6842,    6844,    4783,    5575
    3308,    5509,    5510,    5572,    5571,    6811,    6813,    6841,    6845
    3309,    6811,    6813,    6841,    6845,    6812,    6814,    6842,    6846
    3310,    6812,    6814,    6842,    6846,    5520,    5519,    5575,    5576
    3311,    6845,    6841,    5572,    5571,    6846,    6842,    5575,    5576
    3312,    6823,    6812,    6846,    6847,    5107,    5520,    5576,    3093
    3313,    6824,    6811,    6845,    6848,    6823,    6812,    6846,    6847
    3314,    5103,    5509,    5571,    3092,    6824,    6811,    6845,    6848
    3315,    6848,    6845,    5571,    3092,    6847,    6846,    5576,    3093
    3316,    6742,    6851,    6849,    6733,    5172,    5202,    4714,    5072
    3317,    6741,    6852,    6850,    6734,    6742,    6851,    6849,    6733
    3318,    5170,    5200,    4713,    5069,    6741,    6852,    6850,    6734
    3319,    6852,    5200,    4713,    6850,    6851,    5202,    4714,    6849
    3320,    5169,    5199,    5200,    5170,    6765,    6853,    6852,    6741
    3321,    6765,    6853,    6852,    6741,    6766,    6854,    6851,    6742
    3322,    6766,    6854,    6851,    6742,    5171,    5201,    5202,    5172
    3323,    6853,    5199,    5200,    6852,    6854,    5201,    5202,    6851
    3324,    5646,    5706,    5705,    5645,    6773,    6857,    6855,    6771
    3325,    6773,    6857,    6855,    6771,    6774,    6858,    6856,    6772
    3326,    6774,    6858,    6856,    6772,    5649,    5708,    5707,    5650
    3327,    6857,    5706,    5705,    6855,    6858,    5708,    5707,    6856
    3328,    5755,    5809,    4968,    5129,    6781,    6861,    6859,    6779
    3329,    6781,    6861,    6859,    6779,    6782,    6862,    6860,    6780
    3330,    6782,    6862,    6860,    6780,    5760,    5813,    4983,    5133
    3331,    6861,    5809,    4968,    6859,    6862,    5813,    4983,    6860
    3332,    5425,    5477,    4963,    5127,    6793,    6865,    6863,    6791
    3333,    6793,    6865,    6863,    6791,    6794,    6866,    6864,    6792
    3334,    6794,    6866,    6864,    6792,    5434,    5485,    4978,    5131
    3335,    6865,    5477,    4963,    6863,    6866,    5485,    4978,    6864
    3336,    5128,    2953,    5478,    5426,    6801,    6869,    6867,    6799
    3337,    6801,    6869,    6867,    6799,    6802,    6870,    6868,    6800
    3338,    6802,    6870,    6868,    6800,    5132,    2954,    5486,    5433
    3339,    6869,    2953,    5478,    6867,    6870,    2954,    5486,    6868
    3340,    5426,    5478,    5477,    5425,    6799,    6867,    6865,    6793
    3341,    6799,    6867,    6865,    6793,    6800,    6868,    6866,    6794
    3342,    6800,    6868,    6866,    6794,    5433,    5486,    5485,    5434
    3343,    6867,    5478,    5477,    6865,    6868,    5486,    5485,    6866
    3344,    5127,    4963,    5810,    5756,    6791,    6863,    6871,    6785
    3345,    6791,    6863,    6871,    6785,    6792,    6864,    6872,    6786
    3346,    6792,    6864,    6872,    6786,    5131,    4978,    5814,    5759
    3347,    6863,    4963,    5810,    6871,    6864,    4978,    5814,    6872
    3348,    5756,    5810,    5809,    5755,    6785,    6871,    6861,    6781
    3349,    6785,    6871,    6861,    6781,    6786,    6872,    6862,    6782
    3350,    6786,    6872,    6862,    6782,    5759,    5814,    5813,    5760
    3351,    6871,    5810,    5809,    6861,    6872,    5814,    5813,    6862
    3352,    5129,    4968,    5706,    5646,    6779,    6859,    6857,    6773
    3353,    6779,    6859,    6857,    6773,    6780,    6860,    6858,    6774
    3354,    6780,    6860,    6858,    6774,    5133,    4983,    5708,    5649
    3355,    6859,    4968,    5706,    6857,    6860,    4983,    5708,    6858
    3356,    5130,    4973,    5199,    5169,    6807,    6873,    6853,    6765
    3357,    6807,    6873,    6853,    6765,    6808,    6874,    6854,    6766
    3358,    6808,    6874,    6854,    6766,    5134,    4988,    5201,    5171
    3359,    6873,    4973,    5199,    6853,    6874,    4988,    5201,    6854
    3360,    5645,    5705,    4973,    5130,    6771,    6855,    6873,    6807
    3361,    6771,    6855,    6873,    6807,    6772,    6856,    6874,    6808
    3362,    6772,    6856,    6874,    6808,    5650,    5707,    4988,    5134
    3363,    6855,    5705,    4973,    6873,    6856,    5707,    4988,    6874
    3364,    5881,    5882,    5948,    5947,    6827,    6763,    6877,    6875
    3365,    6827,    6763,    6877,    6875,    6828,    6764,    6878,    6876
    3366,    6828,    6764,    6878,    6876,    5886,    5885,    5937,    5938
    3367,    6875,    6877,    5948,    5947,    6876,    6878,    5937,    5938
    3368,    5104,    5881,    5947,    4738,    6817,    6827,    6875,    6843
    3369,    6817,    6827,    6875,    6843,    6818,    6828,    6876,    6844
    3370,    6818,    6828,    6876,    6844,    5108,    5886,    5938,    4783
    3371,    6843,    6875,    5947,    4738,    6844,    6876,    5938,    4783
    3372,    5882,    5105,    4739,    5948,    6763,    6759,    6839,    6877
    3373,    6763,    6759,    6839,    6877,    6764,    6760,    6840,    6878
    3374,    6764,    6760,    6840,    6878,    5885,    5109,    4784,    5937
    3375,    6877,    6839,    4739,    5948,    6878,    6840,    4784,    5937
    3376,    5106,    5234,    5296,    4740,    6753,    6727,    6879,    6835
    3377,    6753,    6727,    6879,    6835,    6754,    6728,    6880,    6836
    3378,    6754,    6728,    6880,    6836,    5110,    5264,    5298,    4785
    3379,    6835,    6879,    5296,    4740,    6836,    6880,    5298,    4785
    3380,    6733,    6849,    6829,    6739,    5072,    4714,    4787,    5074
    3381,    6734,    6850,    6830,    6740,    6733,    6849,    6829,    6739
    3382,    5069,    4713,    4742,    5071,    6734,    6850,    6830,    6740
    3383,    6850,    4713,    4742,    6830,    6849,    4714,    4787,    6829
    3384,    5233,    5070,    4741,    5295,    6729,    6738,    6832,    6881
    3385,    6729,    6738,    6832,    6881,    6730,    6737,    6831,    6882
    3386,    6730,    6737,    6831,    6882,    5263,    5073,    4786,    5297
    3387,    6881,    6832,    4741,    5295,    6882,    6831,    4786,    5297
    3388,    5234,    5233,    5295,    5296,    6727,    6729,    6881,    6879
    3389,    6727,    6729,    6881,    6879,    6728,    6730,    6882,    6880
    3390,    6728,    6730,    6882,    6880,    5264,    5263,    5297,    5298
    3391,    6879,    6881,    5295,    5296,    6880,    6882,    5297,    5298
    3392,       1,     145,     519,      12,      13,     162,     536,     134
    3393,     145,     146,     520,     519,     162,     163,     537,     536
    3394,     146,     147,     521,     520,     163,     164,     538,     537
    3395,     147,     148,     522,     521,     164,     165,     539,     538
    3396,     148,     149,     523,     522,     165,     166,     540,     539
    3397,     149,     150,     524,     523,     166,     167,     541,     540
    3398,     150,     151,     525,     524,     167,     168,     542,     541
    3399,     151,     152,     526,     525,     168,     169,     543,     542
    3400,     152,     153,     527,     526,     169,     170,     544,     543
    3401,     153,     154,     528,     527,     170,     171,     545,     544
    3402,     154,     155,     529,     528,     171,     172,     546,     545
    3403,     155,     156,     530,     529,     172,     173,     547,     546
    3404,     156,     157,     531,     530,     173,     174,     548,     547
    3405,     157,     158,     532,     531,     174,     175,     549,     548
    3406,     158,     159,     533,     532,     175,     176,     550,     549
    3407,     159,     160,     534,     533,     176,     177,     551,     550
    3408,     160,     161,     535,     534,     177,     178,     552,     551
    3409,     161,    2602,    5423,     535,     178,    5558,    5553,     552
    3410,      12,     519,     502,      11,     134,     536,     553,     135
    3411,     519,     520,     503,     502,     536,     537,     554,     553
    3412,     520,     521,     504,     503,     537,     538,     555,     554
    3413,     521,     522,     505,     504,     538,     539,     556,     555
    3414,     522,     523,     506,     505,     539,     540,     557,     556
    3415,     523,     524,     507,     506,     540,     541,     558,     557
    3416,     524,     525,     508,     507,     541,     542,     559,     558
    3417,     525,     526,     509,     508,     542,     543,     560,     559
    3418,     526,     527,     510,     509,     543,     544,     561,     560
    3419,     527,     528,     511,     510,     544,     545,     562,     561
    3420,     528,     529,     512,     511,     545,     546,     563,     562
    3421,     529,     530,     513,     512,     546,     547,     564,     563
    3422,     530,     531,     514,     513,     547,     548,     565,     564
    3423,     531,     532,     515,     514,     548,     549,     566,     565
    3424,     532,     533,     516,     515,     549,     550,     567,     566
    3425,     533,     534,     517,     516,     550,     551,     568,     567
    3426,     534,     535,     518,     517,     551,     552,     569,     568
    3427,     535,    5423,    5424,     518,     552,    5553,    5549,     569
    3428,      11,     502,     485,      10,     135,     553,     570,     136
    3429,     502,     503,     486,     485,     553,     554,     571,     570
    3430,     503,     504,     487,     486,     554,     555,     572,     571
    3431,     504,     505,     488,     487,     555,     556,     573,     572
    3432,     505,     506,     489,     488,     556,     557,     574,     573
    3433,     506,     507,     490,     489,     557,     558,     575,     574
    3434,     507,     508,     491,     490,     558,     559,     576,     575
    3435,     508,     509,     492,     491,     559,     560,     577,     576
    3436,     509,     510,     493,     492,     560,     561,     578,     577
    3437,     510,     511,     494,     493,     561,     562,     579,     578
    3438,     511,     512,     495,     494,     562,     563,     580,     579
    3439,     512,     513,     496,     495,     563,     564,     581,     580
    3440,     513,     514,     497,     496,     564,     565,     582,     581
    3441,     514,     515,     498,     497,     565,     566,     583,     582
    3442,     515,     516,     499,     498,     566,     567,     584,     583
    3443,     516,     517,     500,     499,     567,     568,     585,     584
    3444,     517,     518,     501,     500,     568,     569,     586,     585
    3445,     518,    5424,    2603,     501,     569,    5549,    5548,     586
    3446,      10,     485,     468,       9,     136,     570,     587,     137
    3447,     485,     486,     469,     468,     570,     571,     588,     587
    3448,     486,     487,     470,     469,     571,     572,     589,     588
    3449,     487,     488,     471,     470,     572,     573,     590,     589
    3450,     488,     489,     472,     471,     573,     574,     591,     590
    3451,     489,     490,     473,     472,     574,     575,     592,     591
    3452,     490,     491,     474,     473,     575,     576,     593,     592
    3453,     491,     492,     475,     474,     576,     577,     594,     593
    3454,     492,     493,     476,     475,     577,     578,     595,     594
    3455,     493,     494,     477,     476,     578,     579,     596,     595
    3456,     494,     495,     478,     477,     579,     580,     597,     596
    3457,     495,     496,     479,     478,     580,     581,     598,     597
    3458,     496,     497,     480,     479,     581,     582,     599,     598
    3459,     497,     498,     481,     480,     582,     583,     600,     599
    3460,     498,     499,     482,     481,     583,     584,     601,     600
    3461,     499,     500,     483,     482,     584,     585,     602,     601
    3462,     500,     501,     484,     483,     585,     586,     603,     602
    3463,     501,    2603,    5779,     484,     586,    5548,    5771,     603
    3464,       9,     468,     451,       8,     137,     587,     604,     138
    3465,     468,     469,     452,     451,     587,     588,     605,     604
    3466,     469,     470,     453,     452,     588,     589,     606,     605
    3467,     470,     471,     454,     453,     589,     590,     607,     606
    3468,     471,     472,     455,     454,     590,     591,     608,     607
    3469,     472,     473,     456,     455,     591,     592,     609,     608
    3470,     473,     474,     457,     456,     592,     593,     610,     609
    3471,     474,     475,     458,     457,     593,     594,     611,     610
    3472,     475,     476,     459,     458,     594,     595,     612,     611
    3473,     476,     477,     460,     459,     595,     596,     613,     612
    3474,     477,     478,     461,     460,     596,     597,     614,     613
    3475,     478,     479,     462,     461,     597,     598,     615,     614
    3476,     479,     480,     463,     462,     598,     599,     616,     615
    3477,     480,     481,     464,     463,     599,     600,     617,     616
    3478,     481,     482,     465,     464,     600,     601,     618,     617
    3479,     482,     483,     466,     465,     601,     602,     619,     618
    3480,     483,     484,     467,     466,     602,     603,     620,     619
    3481,     484,    5779,    5780,     467,     603,    5771,    5772,     620
    3482,       8,     451,     434,       7,     138,     604,     621,     139
    3483,     451,     452,     435,     434,     604,     605,     622,     621
    3484,     452,     453,     436,     435,     605,     606,     623,     622
    3485,     453,     454,     437,     436,     606,     607,     624,     623
    3486,     454,     455,     438,     437,     607,     608,     625,     624
    3487,     455,     456,     439,     438,     608,     609,     626,     625
    3488,     456,     457,     440,     439,     609,     610,     627,     626
    3489,     457,     458,     441,     440,     610,     611,     628,     627
    3490,     458,     459,     442,     441,     611,     612,     629,     628
    3491,     459,     460,     443,     442,     612,     613,     630,     629
    3492,     460,     461,     444,     443,     613,     614,     631,     630
    3493,     461,     462,     445,     444,     614,     615,     632,     631
    3494,     462,     463,     446,     445,     615,     616,     633,     632
    3495,     463,     464,     447,     446,     616,     617,     634,     633
    3496,     464,     465,     448,     447,     617,     618,     635,     634
    3497,     465,     466,     449,     448,     618,     619,     636,     635
    3498,     466,     467,     450,     449,     619,     620,     637,     636
    3499,     467,    5780,    2604,     450,     620,    5772,    5544,     637
    3500,       7,     434,     417,       6,     139,     621,     638,     140
    3501,     434,     435,     418,     417,     621,     622,     639,     638
    3502,     435,     436,     419,     418,     622,     623,     640,     639
    3503,     436,     437,     420,     419,     623,     624,     641,     640
    3504,     437,     438,     421,     420,     624,     625,     642,     641
    3505,     438,     439,     422,     421,     625,     626,     643,     642
    3506,     439,     440,     423,     422,     626,     627,     644,     643
    3507,     440,     441,     424,     423,     627,     628,     645,     644
    3508,     441,     442,     425,     424,     628,     629,     646,     645
    3509,     442,     443,     426,     425,     629,     630,     647,     646
    3510,     443,     444,     427,     426,     630,     631,     648,     647
    3511,     444,     445,     428,     427,     631,     632,     649,     648
    3512,     445,     446,     429,     428,     632,     633,     650,     649
    3513,     446,     447,     430,     429,     633,     634,     651,     650
    3514,     447,     448,     431,     430,     634,     635,     652,     651
    3515,     448,     449,     432,     431,     635,     636,     653,     652
    3516,     449,     450,     433,     432,     636,     637,     654,     653
    3517,     450,    2604,    5661,     433,     637,    5544,    5667,     654
    3518,       6,     417,     400,       5,     140,     638,     655,     141
    3519,     417,     418,     401,     400,     638,     639,     656,     655
    3520,     418,     419,     402,     401,     639,     640,     657,     656
    3521,     419,     420,     403,     402,     640,     641,     658,     657
    3522,     420,     421,     404,     403,     641,     642,     659,     658
    3523,     421,     422,     405,     404,     642,     643,     660,     659
    3524,     422,     423,     406,     405,     643,     644,     661,     660
    3525,     423,     424,     407,     406,     644,     645,     662,     661
    3526,     424,     425,     408,     407,     645,     646,     663,     662
    3527,     425,     426,     409,     408,     646,     647,     664,     663
    3528,     426,     427,     410,     409,     647,     648,     665,     664
    3529,     427,     428,     411,     410,     648,     649,     666,     665
    3530,     428,     429,     412,     411,     649,     650,     667,     666
    3531,     429,     430,     413,     412,     650,     651,     668,     667
    3532,     430,     431,     414,     413,     651,     652,     669,     668
    3533,     431,     432,     415,     414,     652,     653,     670,     669
    3534,     432,     433,     416,     415,     653,     654,     671,     670
    3535,     433,    5661,    5662,     416,     654,    5667,    5668,     671
    3536,       5,     400,     383,       4,     141,     655,     672,     142
    3537,     400,     401,     384,     383,     655,     656,     673,     672
    3538,     401,     402,     385,     384,     656,     657,     674,     673
    3539,     402,     403,     386,     385,     657,     658,     675,     674
    3540,     403,     404,     387,     386,     658,     659,     676,     675
    3541,     404,     405,     388,     387,     659,     660,     677,     676
    3542,     405,     406,     389,     388,     660,     661,     678,     677
    3543,     406,     407,     390,     389,     661,     662,     679,     678
    3544,     407,     408,     391,     390,     662,     663,     680,     679
    3545,     408,     409,     392,     391,     663,     664,     681,     680
    3546,     409,     410,     393,     392,     664,     665,     682,     681
    3547,     410,     411,     394,     393,     665,     666,     683,     682
    3548,     411,     412,     395,     394,     666,     667,     684,     683
    3549,     412,     413,     396,     395,     667,     668,     685,     684
    3550,     413,     414,     397,     396,     668,     669,     686,     685
    3551,     414,     415,     398,     397,     669,     670,     687,     686
    3552,     415,     416,     399,     398,     670,     671,     688,     687
    3553,     416,    5662,    2605,     399,     671,    5668,    5538,     688
    3554,       4,     383,     366,       3,     142,     672,     689,     143
    3555,     383,     384,     367,     366,     672,     673,     690,     689
    3556,     384,     385,     368,     367,     673,     674,     691,     690
    3557,     385,     386,     369,     368,     674,     675,     692,     691
    3558,     386,     387,     370,     369,     675,     676,     693,     692
    3559,     387,     388,     371,     370,     676,     677,     694,     693
    3560,     388,     389,     372,     371,     677,     678,     695,     694
    3561,     389,     390,     373,     372,     678,     679,     696,     695
    3562,     390,     391,     374,     373,     679,     680,     697,     696
    3563,     391,     392,     375,     374,     680,     681,     698,     697
    3564,     392,     393,     376,     375,     681,     682,     699,     698
    3565,     393,     394,     377,     376,     682,     683,     700,     699
    3566,     394,     395,     378,     377,     683,     684,     701,     700
    3567,     395,     396,     379,     378,     684,     685,     702,     701
    3568,     396,     397,     380,     379,     685,     686,     703,     702
    3569,     397,     398,     381,     380,     686,     687,     704,     703
    3570,     398,     399,     382,     381,     687,     688,     705,     704
    3571,     399,    2605,    5197,     382,     688,    5538,    5535,     705
    3572,       3,     366,     349,       2,     143,     689,     706,     144
    3573,     366,     367,     350,     349,     689,     690,     707,     706
    3574,     367,     368,     351,     350,     690,     691,     708,     707
    3575,     368,     369,     352,     351,     691,     692,     709,     708
    3576,     369,     370,     353,     352,     692,     693,     710,     709
    3577,     370,     371,     354,     353,     693,     694,     711,     710
    3578,     371,     372,     355,     354,     694,     695,     712,     711
    3579,     372,     373,     356,     355,     695,     696,     713,     712
    3580,     373,     374,     357,     356,     696,     697,     714,     713
    3581,     374,     375,     358,     357,     697,     698,     715,     714
    3582,     375,     376,     359,     358,     698,     699,     716,     715
    3583,     376,     377,     360,     359,     699,     700,     717,     716
    3584,     377,     378,     361,     360,     700,     701,     718,     717
    3585,     378,     379,     362,     361,     701,     702,     719,     718
    3586,     379,     380,     363,     362,     702,     703,     720,     719
    3587,     380,     381,     364,     363,     703,     704,     721,     720
    3588,     381,     382,     365,     364,     704,     705,     722,     721
    3589,     382,    5197,    5198,     365,     705,    5535,    5499,     722
    3590,       2,     349,    6156,    2624,     144,     706,    6162,    5563
    3591,     349,     350,    6155,    6156,     706,     707,    6161,    6162
    3592,     350,     351,    2632,    6155,     707,     708,    5532,    6161
    3593,     351,     352,    6328,    2632,     708,     709,    6334,    5532
    3594,     352,     353,    6327,    6328,     709,     710,    6333,    6334
    3595,     353,     354,    2631,    6327,     710,     711,    5526,    6333
    3596,     354,     355,    6486,    2631,     711,     712,    6492,    5526
    3597,     355,     356,    6485,    6486,     712,     713,    6491,    6492
    3598,     356,     357,    2630,    6485,     713,     714,    5524,    6491
    3599,     357,     358,    6600,    2630,     714,     715,    6606,    5524
    3600,     358,     359,    6599,    6600,     715,     716,    6605,    6606
    3601,     359,     360,    2629,    6599,     716,     717,    5518,    6605
    3602,     360,     361,    6822,    2629,     717,     718,    6810,    5518
    3603,     361,     362,    6821,    6822,     718,     719,    6809,    6810
    3604,     362,     363,    2628,    6821,     719,     720,    5512,    6809
    3605,     363,     364,    5348,    2628,     720,     721,    5513,    5512
    3606,     364,     365,    5347,    5348,     721,     722,    5505,    5513
    3607,     365,    5198,    2598,    5347,     722,    5499,    5497,    5505
    3608,      13,     162,     536,     134,      14,     179,     723,     123
    3609,     162,     163,     537,     536,     179,     180,     724,     723
    3610,     163,     164,     538,     537,     180,     181,     725,     724
    3611,     164,     165,     539,     538,     181,     182,     726,     725
    3612,     165,     166,     540,     539,     182,     183,     727,     726
    3613,     166,     167,     541,     540,     183,     184,     728,     727
    3614,     167,     168,     542,     541,     184,     185,     729,     728
    3615,     168,     169,     543,     542,     185,     186,     730,     729
    3616,     169,     170,     544,     543,     186,     187,     731,     730
    3617,     170,     171,     545,     544,     187,     188,     732,     731
    3618,     171,     172,     546,     545,     188,     189,     733,     732
    3619,     172,     173,     547,     546,     189,     190,     734,     733
    3620,     173,     174,     548,     547,     190,     191,     735,     734
    3621,     174,     175,     549,     548,     191,     192,     736,     735
    3622,     175,     176,     550,     549,     192,     193,     737,     736
    3623,     176,     177,     551,     550,     193,     194,     738,     737
    3624,     177,     178,     552,     551,     194,     195,     739,     738
    3625,     178,    5558,    5553,     552,     195,    5557,    5554,     739
    3626,     134,     536,     553,     135,     123,     723,     740,     124
    3627,     536,     537,     554,     553,     723,     724,     741,     740
    3628,     537,     538,     555,     554,     724,     725,     742,     741
    3629,     538,     539,     556,     555,     725,     726,     743,     742
    3630,     539,     540,     557,     556,     726,     727,     744,     743
    3631,     540,     541,     558,     557,     727,     728,     745,     744
    3632,     541,     542,     559,     558,     728,     729,     746,     745
    3633,     542,     543,     560,     559,     729,     730,     747,     746
    3634,     543,     544,     561,     560,     730,     731,     748,     747
    3635,     544,     545,     562,     561,     731,     732,     749,     748
    3636,     545,     546,     563,     562,     732,     733,     750,     749
    3637,     546,     547,     564,     563,     733,     734,     751,     750
    3638,     547,     548,     565,     564,     734,     735,     752,     751
    3639,     548,     549,     566,     565,     735,     736,     753,     752
    3640,     549,     550,     567,     566,     736,     737,     754,     753
    3641,     550,     551,     568,     567,     737,     738,     755,     754
    3642,     551,     552,     569,     568,     738,     739,     756,     755
    3643,     552,    5553,    5549,     569,     739,    5554,    5550,     756
    3644,     135,     553,     570,     136,     124,     740,     757,     125
    3645,     553,     554,     571,     570,     740,     741,     758,     757
    3646,     554,     555,     572,     571,     741,     742,     759,     758
    3647,     555,     556,     573,     572,     742,     743,     760,     759
    3648,     556,     557,     574,     573,     743,     744,     761,     760
    3649,     557,     558,     575,     574,     744,     745,     762,     761
    3650,     558,     559,     576,     575,     745,     746,     763,     762
    3651,     559,     560,     577,     576,     746,     747,     764,     763
    3652,     560,     561,     578,     577,     747,     748,     765,     764
    3653,     561,     562,     579,     578,     748,     749,     766,     765
    3654,     562,     563,     580,     579,     749,     750,     767,     766
    3655,     563,     564,     581,     580,     750,     751,     768,     767
    3656,     564,     565,     582,     581,     751,     752,     769,     768
    3657,     565,     566,     583,     582,     752,     753,     770,     769
    3658,     566,     567,     584,     583,     753,     754,     771,     770
    3659,     567,     568,     585,     584,     754,     755,     772,     771
    3660,     568,     569,     586,     585,     755,     756,     773,     772
    3661,     569,    5549,    5548,     586,     756,    5550,    5547,     773
    3662,     136,     570,     587,     137,     125,     757,     774,     126
    3663,     570,     571,     588,     587,     757,     758,     775,     774
    3664,     571,     572,     589,     588,     758,     759,     776,     775
    3665,     572,     573,     590,     589,     759,     760,     777,     776
    3666,     573,     574,     591,     590,     760,     761,     778,     777
    3667,     574,     575,     592,     591,     761,     762,     779,     778
    3668,     575,     576,     593,     592,     762,     763,     780,     779
    3669,     576,     577,     594,     593,     763,     764,     781,     780
    3670,     577,     578,     595,     594,     764,     765,     782,     781
    3671,     578,     579,     596,     595,     765,     766,     783,     782
    3672,     579,     580,     597,     596,     766,     767,     784,     783
    3673,     580,     581,     598,     597,     767,     768,     785,     784
    3674,     581,     582,     599,     598,     768,     769,     786,     785
    3675,     582,     583,     600,     599,     769,     770,     787,     786
    3676,     583,     584,     601,     600,     770,     771,     788,     787
    3677,     584,     585,     602,     601,     771,     772,     789,     788
    3678,     585,     586,     603,     602,     772,     773,     790,     789
    3679,     586,    5548,    5771,     603,     773,    5547,    5777,     790
    3680,     137,     587,     604,     138,     126,     774,     791,     127
    3681,     587,     588,     605,     604,     774,     775,     792,     791
    3682,     588,     589,     606,     605,     775,     776,     793,     792
    3683,     589,     590,     607,     606,     776,     777,     794,     793
    3684,     590,     591,     608,     607,     777,     778,     795,     794
    3685,     591,     592,     609,     608,     778,     779,     796,     795
    3686,     592,     593,     610,     609,     779,     780,     797,     796
    3687,     593,     594,     611,     610,     780,     781,     798,     797
    3688,     594,     595,     612,     611,     781,     782,     799,     798
    3689,     595,     596,     613,     612,     782,     783,     800,     799
    3690,     596,     597,     614,     613,     783,     784,     801,     800
    3691,     597,     598,     615,     614,     784,     785,     802,     801
    3692,     598,     599,     616,     615,     785,     786,     803,     802
    3693,     599,     600,     617,     616,     786,     787,     804,     803
    3694,     600,     601,     618,     617,     787,     788,     805,     804
    3695,     601,     602,     619,     618,     788,     789,     806,     805
    3696,     602,     603,     620,     619,     789,     790,     807,     806
    3697,     603,    5771,    5772,     620,     790,    5777,    5778,     807
    3698,     138,     604,     621,     139,     127,     791,     808,     128
    3699,     604,     605,     622,     621,     791,     792,     809,     808
    3700,     605,     606,     623,     622,     792,     793,     810,     809
    3701,     606,     607,     624,     623,     793,     794,     811,     810
    3702,     607,     608,     625,     624,     794,     795,     812,     811
    3703,     608,     609,     626,     625,     795,     796,     813,     812
    3704,     609,     610,     627,     626,     796,     797,     814,     813
    3705,     610,     611,     628,     627,     797,     798,     815,     814
    3706,     611,     612,     629,     628,     798,     799,     816,     815
    3707,     612,     613,     630,     629,     799,     800,     817,     816
    3708,     613,     614,     631,     630,     800,     801,     818,     817
    3709,     614,     615,     632,     631,     801,     802,     819,     818
    3710,     615,     616,     633,     632,     802,     803,     820,     819
    3711,     616,     617,     634,     633,     803,     804,     821,     820
    3712,     617,     618,     635,     634,     804,     805,     822,     821
    3713,     618,     619,     636,     635,     805,     806,     823,     822
    3714,     619,     620,     637,     636,     806,     807,     824,     823
    3715,     620,    5772,    5544,     637,     807,    5778,    5543,     824
    3716,     139,     621,     638,     140,     128,     808,     825,     129
    3717,     621,     622,     639,     638,     808,     809,     826,     825
    3718,     622,     623,     640,     639,     809,     810,     827,     826
    3719,     623,     624,     641,     640,     810,     811,     828,     827
    3720,     624,     625,     642,     641,     811,     812,     829,     828
    3721,     625,     626,     643,     642,     812,     813,     830,     829
    3722,     626,     627,     644,     643,     813,     814,     831,     830
    3723,     627,     628,     645,     644,     814,     815,     832,     831
    3724,     628,     629,     646,     645,     815,     816,     833,     832
    3725,     629,     630,     647,     646,     816,     817,     834,     833
    3726,     630,     631,     648,     647,     817,     818,     835,     834
    3727,     631,     632,     649,     648,     818,     819,     836,     835
    3728,     632,     633,     650,     649,     819,     820,     837,     836
    3729,     633,     634,     651,     650,     820,     821,     838,     837
    3730,     634,     635,     652,     651,     821,     822,     839,     838
    3731,     635,     636,     653,     652,     822,     823,     840,     839
    3732,     636,     637,     654,     653,     823,     824,     841,     840
    3733,     637,    5544,    5667,     654,     824,    5543,    5671,     841
    3734,     140,     638,     655,     141,     129,     825,     842,     130
    3735,     638,     639,     656,     655,     825,     826,     843,     842
    3736,     639,     640,     657,     656,     826,     827,     844,     843
    3737,     640,     641,     658,     657,     827,     828,     845,     844
    3738,     641,     642,     659,     658,     828,     829,     846,     845
    3739,     642,     643,     660,     659,     829,     830,     847,     846
    3740,     643,     644,     661,     660,     830,     831,     848,     847
    3741,     644,     645,     662,     661,     831,     832,     849,     848
    3742,     645,     646,     663,     662,     832,     833,     850,     849
    3743,     646,     647,     664,     663,     833,     834,     851,     850
    3744,     647,     648,     665,     664,     834,     835,     852,     851
    3745,     648,     649,     666,     665,     835,     836,     853,     852
    3746,     649,     650,     667,     666,     836,     837,     854,     853
    3747,     650,     651,     668,     667,     837,     838,     855,     854
    3748,     651,     652,     669,     668,     838,     839,     856,     855
    3749,     652,     653,     670,     669,     839,     840,     857,     856
    3750,     653,     654,     671,     670,     840,     841,     858,     857
    3751,     654,    5667,    5668,     671,     841,    5671,    5672,     858
    3752,     141,     655,     672,     142,     130,     842,     859,     131
    3753,     655,     656,     673,     672,     842,     843,     860,     859
    3754,     656,     657,     674,     673,     843,     844,     861,     860
    3755,     657,     658,     675,     674,     844,     845,     862,     861
    3756,     658,     659,     676,     675,     845,     846,     863,     862
    3757,     659,     660,     677,     676,     846,     847,     864,     863
    3758,     660,     661,     678,     677,     847,     848,     865,     864
    3759,     661,     662,     679,     678,     848,     849,     866,     865
    3760,     662,     663,     680,     679,     849,     850,     867,     866
    3761,     663,     664,     681,     680,     850,     851,     868,     867
    3762,     664,     665,     682,     681,     851,     852,     869,     868
    3763,     665,     666,     683,     682,     852,     853,     870,     869
    3764,     666,     667,     684,     683,     853,     854,     871,     870
    3765,     667,     668,     685,     684,     854,     855,     872,     871
    3766,     668,     669,     686,     685,     855,     856,     873,     872
    3767,     669,     670,     687,     686,     856,     857,     874,     873
    3768,     670,     671,     688,     687,     857,     858,     875,     874
    3769,     671,    5668,    5538,     688,     858,    5672,    5537,     875
    3770,     142,     672,     689,     143,     131,     859,     876,     132
    3771,     672,     673,     690,     689,     859,     860,     877,     876
    3772,     673,     674,     691,     690,     860,     861,     878,     877
    3773,     674,     675,     692,     691,     861,     862,     879,     878
    3774,     675,     676,     693,     692,     862,     863,     880,     879
    3775,     676,     677,     694,     693,     863,     864,     881,     880
    3776,     677,     678,     695,     694,     864,     865,     882,     881
    3777,     678,     679,     696,     695,     865,     866,     883,     882
    3778,     679,     680,     697,     696,     866,     867,     884,     883
    3779,     680,     681,     698,     697,     867,     868,     885,     884
    3780,     681,     682,     699,     698,     868,     869,     886,     885
    3781,     682,     683,     700,     699,     869,     870,     887,     886
    3782,     683,     684,     701,     700,     870,     871,     888,     887
    3783,     684,     685,     702,     701,     871,     872,     889,     888
    3784,     685,     686,     703,     702,     872,     873,     890,     889
    3785,     686,     687,     704,     703,     873,     874,     891,     890
    3786,     687,     688,     705,     704,     874,     875,     892,     891
    3787,     688,    5538,    5535,     705,     875,    5537,    5536,     892
    3788,     143,     689,     706,     144,     132,     876,     893,     133
    3789,     689,     690,     707,     706,     876,     877,     894,     893
    3790,     690,     691,     708,     707,     877,     878,     895,     894
    3791,     691,     692,     709,     708,     878,     879,     896,     895
    3792,     692,     693,     710,     709,     879,     880,     897,     896
    3793,     693,     694,     711,     710,     880,     881,     898,     897
    3794,     694,     695,     712,     711,     881,     882,     899,     898
    3795,     695,     696,     713,     712,     882,     883,     900,     899
    3796,     696,     697,     714,     713,     883,     884,     901,     900
    3797,     697,     698,     715,     714,     884,     885,     902,     901
    3798,     698,     699,     716,     715,     885,     886,     903,     902
    3799,     699,     700,     717,     716,     886,     887,     904,     903
    3800,     700,     701,     718,     717,     887,     888,     905,     904
    3801,     701,     702,     719,     718,     888,     889,     906,     905
    3802,     702,     703,     720,     719,     889,     890,     907,     906
    3803,     703,     704,     721,     720,     890,     891,     908,     907
    3804,     704,     705,     722,     721,     891,     892,     909,     908
    3805,     705,    5535,    5499,     722,     892,    5536,    5500,     909
    3806,     144,     706,    6162,    5563,     133,     893,    6192,    5564
    3807,     706,     707,    6161,    6162,     893,     894,    6191,    6192
    3808,     707,     708,    5532,    6161,     894,     895,    5531,    6191
    3809,     708,     709,    6334,    5532,     895,     896,    6338,    5531
    3810,     709,     710,    6333,    6334,     896,     897,    6337,    6338
    3811,     710,     711,    5526,    6333,     897,     898,    5525,    6337
    3812,     711,     712,    6492,    5526,     898,     899,    6496,    5525
    3813,     712,     713,    6491,    6492,     899,     900,    6495,    6496
    3814,     713,     714,    5524,    6491,     900,     901,    5523,    6495
    3815,     714,     715,    6606,    5524,     901,     902,    6610,    5523
    3816,     715,     716,    6605,    6606,     902,     903,    6609,    6610
    3817,     716,     717,    5518,    6605,     903,     904,    5517,    6609
    3818,     717,     718,    6810,    5518,     904,     905,    6816,    5517
    3819,     718,     719,    6809,    6810,     905,     906,    6815,    6816
    3820,     719,     720,    5512,    6809,     906,     907,    5511,    6815
    3821,     720,     721,    5513,    5512,     907,     908,    5514,    5511
    3822,     721,     722,    5505,    5513,     908,     909,    5506,    5514
    3823,     722,    5499,    5497,    5505,     909,    5500,    5498,    5506
    3824,      14,     179,     723,     123,      15,     196,     910,     112
    3825,     179,     180,     724,     723,     196,     197,     911,     910
    3826,     180,     181,     725,     724,     197,     198,     912,     911
    3827,     181,     182,     726,     725,     198,     199,     913,     912
    3828,     182,     183,     727,     726,     199,     200,     914,     913
    3829,     183,     184,     728,     727,     200,     201,     915,     914
    3830,     184,     185,     729,     728,     201,     202,     916,     915
    3831,     185,     186,     730,     729,     202,     203,     917,     916
    3832,     186,     187,     731,     730,     203,     204,     918,     917
    3833,     187,     188,     732,     731,     204,     205,     919,     918
    3834,     188,     189,     733,     732,     205,     206,     920,     919
    3835,     189,     190,     734,     733,     206,     207,     921,     920
    3836,     190,     191,     735,     734,     207,     208,     922,     921
    3837,     191,     192,     736,     735,     208,     209,     923,     922
    3838,     192,     193,     737,     736,     209,     210,     924,     923
    3839,     193,     194,     738,     737,     210,     211,     925,     924
    3840,     194,     195,     739,     738,     211,     212,     926,     925
    3841,     195,    5557,    5554,     739,     212,    2608,    5422,     926
    3842,     123,     723,     740,     124,     112,     910,     927,     113
    3843,     723,     724,     741,     740,     910,     911,     928,     927
    3844,     724,     725,     742,     741,     911,     912,     929,     928
    3845,     725,     726,     743,     742,     912,     913,     930,     929
    3846,     726,     727,     744,     743,     913,     914,     931,     930
    3847,     727,     728,     745,     744,     914,     915,     932,     931
    3848,     728,     729,     746,     745,     915,     916,     933,     932
    3849,     729,     730,     747,     746,     916,     917,     934,     933
    3850,     730,     731,     748,     747,     917,     918,     935,     934
    3851,     731,     732,     749,     748,     918,     919,     936,     935
    3852,     732,     733,     750,     749,     919,     920,     937,     936
    3853,     733,     734,     751,     750,     920,     921,     938,     937
    3854,     734,     735,     752,     751,     921,     922,     939,     938
    3855,     735,     736,     753,     752,     922,     923,     940,     939
    3856,     736,     737,     754,     753,     923,     924,     941,     940
    3857,     737,     738,     755,     754,     924,     925,     942,     941
    3858,     738,     739,     756,     755,     925,     926,     943,     942
    3859,     739,    5554,    5550,     756,     926,    5422,    5421,     943
    3860,     124,     740,     757,     125,     113,     927,     944,     114
    3861,     740,     741,     758,     757,     927,     928,     945,     944
    3862,     741,     742,     759,     758,     928,     929,     946,     945
    3863,     742,     743,     760,     759,     929,     930,     947,     946
    3864,     743,     744,     761,     760,     930,     931,     948,     947
    3865,     744,     745,     762,     761,     931,     932,     949,     948
    3866,     745,     746,     763,     762,     932,     933,     950,     949
    3867,     746,     747,     764,     763,     933,     934,     951,     950
    3868,     747,     748,     765,     764,     934,     935,     952,     951
    3869,     748,     749,     766,     765,     935,     936,     953,     952
    3870,     749,     750,     767,     766,     936,     937,     954,     953
    3871,     750,     751,     768,     767,     937,     938,     955,     954
    3872,     751,     752,     769,     768,     938,     939,     956,     955
    3873,     752,     753,     770,     769,     939,     940,     957,     956
    3874,     753,     754,     771,     770,     940,     941,     958,     957
    3875,     754,     755,     772,     771,     941,     942,     959,     958
    3876,     755,     756,     773,     772,     942,     943,     960,     959
    3877,     756,    5550,    5547,     773,     943,    5421,    2615,     960
    3878,     125,     757,     774,     126,     114,     944,     961,     115
    3879,     757,     758,     775,     774,     944,     945,     962,     961
    3880,     758,     759,     776,     775,     945,     946,     963,     962
    3881,     759,     760,     777,     776,     946,     947,     964,     963
    3882,     760,     761,     778,     777,     947,     948,     965,     964
    3883,     761,     762,     779,     778,     948,     949,     966,     965
    3884,     762,     763,     780,     779,     949,     950,     967,     966
    3885,     763,     764,     781,     780,     950,     951,     968,     967
    3886,     764,     765,     782,     781,     951,     952,     969,     968
    3887,     765,     766,     783,     782,     952,     953,     970,     969
    3888,     766,     767,     784,     783,     953,     954,     971,     970
    3889,     767,     768,     785,     784,     954,     955,     972,     971
    3890,     768,     769,     786,     785,     955,     956,     973,     972
    3891,     769,     770,     787,     786,     956,     957,     974,     973
    3892,     770,     771,     788,     787,     957,     958,     975,     974
    3893,     771,     772,     789,     788,     958,     959,     976,     975
    3894,     772,     773,     790,     789,     959,     960,     977,     976
    3895,     773,    5547,    5777,     790,     960,    2615,    5746,     977
    3896,     126,     774,     791,     127,     115,     961,     978,     116
    3897,     774,     775,     792,     791,     961,     962,     979,     978
    3898,     775,     776,     793,     792,     962,     963,     980,     979
    3899,     776,     777,     794,     793,     963,     964,     981,     980
    3900,     777,     778,     795,     794,     964,     965,     982,     981
    3901,     778,     779,     796,     795,     965,     966,     983,     982
    3902,     779,     780,     797,     796,     966,     967,     984,     983
    3903,     780,     781,     798,     797,     967,     968,     985,     984
    3904,     781,     782,     799,     798,     968,     969,     986,     985
    3905,     782,     783,     800,     799,     969,     970,     987,     986
    3906,     783,     784,     801,     800,     970,     971,     988,     987
    3907,     784,     785,     802,     801,     971,     972,     989,     988
    3908,     785,     786,     803,     802,     972,     973,     990,     989
    3909,     786,     787,     804,     803,     973,     974,     991,     990
    3910,     787,     788,     805,     804,     974,     975,     992,     991
    3911,     788,     789,     806,     805,     975,     976,     993,     992
    3912,     789,     790,     807,     806,     976,     977,     994,     993
    3913,     790,    5777,    5778,     807,     977,    5746,    5745,     994
    3914,     127,     791,     808,     128,     116,     978,     995,     117
    3915,     791,     792,     809,     808,     978,     979,     996,     995
    3916,     792,     793,     810,     809,     979,     980,     997,     996
    3917,     793,     794,     811,     810,     980,     981,     998,     997
    3918,     794,     795,     812,     811,     981,     982,     999,     998
    3919,     795,     796,     813,     812,     982,     983,    1000,     999
    3920,     796,     797,     814,     813,     983,     984,    1001,    1000
    3921,     797,     798,     815,     814,     984,     985,    1002,    1001
    3922,     798,     799,     816,     815,     985,     986,    1003,    1002
    3923,     799,     800,     817,     816,     986,     987,    1004,    1003
    3924,     800,     801,     818,     817,     987,     988,    1005,    1004
    3925,     801,     802,     819,     818,     988,     989,    1006,    1005
    3926,     802,     803,     820,     819,     989,     990,    1007,    1006
    3927,     803,     804,     821,     820,     990,     991,    1008,    1007
    3928,     804,     805,     822,     821,     991,     992,    1009,    1008
    3929,     805,     806,     823,     822,     992,     993,    1010,    1009
    3930,     806,     807,     824,     823,     993,     994,    1011,    1010
    3931,     807,    5778,    5543,     824,     994,    5745,    2616,    1011
    3932,     128,     808,     825,     129,     117,     995,    1012,     118
    3933,     808,     809,     826,     825,     995,     996,    1013,    1012
    3934,     809,     810,     827,     826,     996,     997,    1014,    1013
    3935,     810,     811,     828,     827,     997,     998,    1015,    1014
    3936,     811,     812,     829,     828,     998,     999,    1016,    1015
    3937,     812,     813,     830,     829,     999,    1000,    1017,    1016
    3938,     813,     814,     831,     830,    1000,    1001,    1018,    1017
    3939,     814,     815,     832,     831,    1001,    1002,    1019,    1018
    3940,     815,     816,     833,     832,    1002,    1003,    1020,    1019
    3941,     816,     817,     834,     833,    1003,    1004,    1021,    1020
    3942,     817,     818,     835,     834,    1004,    1005,    1022,    1021
    3943,     818,     819,     836,     835,    1005,    1006,    1023,    1022
    3944,     819,     820,     837,     836,    1006,    1007,    1024,    1023
    3945,     820,     821,     838,     837,    1007,    1008,    1025,    1024
    3946,     821,     822,     839,     838,    1008,    1009,    1026,    1025
    3947,     822,     823,     840,     839,    1009,    1010,    1027,    1026
    3948,     823,     824,     841,     840,    1010,    1011,    1028,    1027
    3949,     824,    5543,    5671,     841,    1011,    2616,    5632,    1028
    3950,     129,     825,     842,     130,     118,    1012,    1029,     119
    3951,     825,     826,     843,     842,    1012,    1013,    1030,    1029
    3952,     826,     827,     844,     843,    1013,    1014,    1031,    1030
    3953,     827,     828,     845,     844,    1014,    1015,    1032,    1031
    3954,     828,     829,     846,     845,    1015,    1016,    1033,    1032
    3955,     829,     830,     847,     846,    1016,    1017,    1034,    1033
    3956,     830,     831,     848,     847,    1017,    1018,    1035,    1034
    3957,     831,     832,     849,     848,    1018,    1019,    1036,    1035
    3958,     832,     833,     850,     849,    1019,    1020,    1037,    1036
    3959,     833,     834,     851,     850,    1020,    1021,    1038,    1037
    3960,     834,     835,     852,     851,    1021,    1022,    1039,    1038
    3961,     835,     836,     853,     852,    1022,    1023,    1040,    1039
    3962,     836,     837,     854,     853,    1023,    1024,    1041,    1040
    3963,     837,     838,     855,     854,    1024,    1025,    1042,    1041
    3964,     838,     839,     856,     855,    1025,    1026,    1043,    1042
    3965,     839,     840,     857,     856,    1026,    1027,    1044,    1043
    3966,     840,     841,     858,     857,    1027,    1028,    1045,    1044
    3967,     841,    5671,    5672,     858,    1028,    5632,    5631,    1045
    3968,     130,     842,     859,     131,     119,    1029,    1046,     120
    3969,     842,     843,     860,     859,    1029,    1030,    1047,    1046
    3970,     843,     844,     861,     860,    1030,    1031,    1048,    1047
    3971,     844,     845,     862,     861,    1031,    1032,    1049,    1048
    3972,     845,     846,     863,     862,    1032,    1033,    1050,    1049
    3973,     846,     847,     864,     863,    1033,    1034,    1051,    1050
    3974,     847,     848,     865,     864,    1034,    1035,    1052,    1051
    3975,     848,     849,     866,     865,    1035,    1036,    1053,    1052
    3976,     849,     850,     867,     866,    1036,    1037,    1054,    1053
    3977,     850,     851,     868,     867,    1037,    1038,    1055,    1054
    3978,     851,     852,     869,     868,    1038,    1039,    1056,    1055
    3979,     852,     853,     870,     869,    1039,    1040,    1057,    1056
    3980,     853,     854,     871,     870,    1040,    1041,    1058,    1057
    3981,     854,     855,     872,     871,    1041,    1042,    1059,    1058
    3982,     855,     856,     873,     872,    1042,    1043,    1060,    1059
    3983,     856,     857,     874,     873,    1043,    1044,    1061,    1060
    3984,     857,     858,     875,     874,    1044,    1045,    1062,    1061
    3985,     858,    5672,    5537,     875,    1045,    5631,    2617,    1062
    3986,     131,     859,     876,     132,     120,    1046,    1063,     121
    3987,     859,     860,     877,     876,    1046,    1047,    1064,    1063
    3988,     860,     861,     878,     877,    1047,    1048,    1065,    1064
    3989,     861,     862,     879,     878,    1048,    1049,    1066,    1065
    3990,     862,     863,     880,     879,    1049,    1050,    1067,    1066
    3991,     863,     864,     881,     880,    1050,    1051,    1068,    1067
    3992,     864,     865,     882,     881,    1051,    1052,    1069,    1068
    3993,     865,     866,     883,     882,    1052,    1053,    1070,    1069
    3994,     866,     867,     884,     883,    1053,    1054,    1071,    1070
    3995,     867,     868,     885,     884,    1054,    1055,    1072,    1071
    3996,     868,     869,     886,     885,    1055,    1056,    1073,    1072
    3997,     869,     870,     887,     886,    1056,    1057,    1074,    1073
    3998,     870,     871,     888,     887,    1057,    1058,    1075,    1074
    3999,     871,     872,     889,     888,    1058,    1059,    1076,    1075
    4000,     872,     873,     890,     889,    1059,    1060,    1077,    1076
    4001,     873,     874,     891,     890,    1060,    1061,    1078,    1077
    4002,     874,     875,     892,     891,    1061,    1062,    1079,    1078
    4003,     875,    5537,    5536,     892,    1062,    2617,    5194,    1079
    4004,     132,     876,     893,     133,     121,    1063,    1080,     122
    4005,     876,     877,     894,     893,    1063,    1064,    1081,    1080
    4006,     877,     878,     895,     894,    1064,    1065,    1082,    1081
    4007,     878,     879,     896,     895,    1065,    1066,    1083,    1082
    4008,     879,     880,     897,     896,    1066,    1067,    1084,    1083
    4009,     880,     881,     898,     897,    1067,    1068,    1085,    1084
    4010,     881,     882,     899,     898,    1068,    1069,    1086,    1085
    4011,     882,     883,     900,     899,    1069,    1070,    1087,    1086
    4012,     883,     884,     901,     900,    1070,    1071,    1088,    1087
    4013,     884,     885,     902,     901,    1071,    1072,    1089,    1088
    4014,     885,     886,     903,     902,    1072,    1073,    1090,    1089
    4015,     886,     887,     904,     903,    1073,    1074,    1091,    1090
    4016,     887,     888,     905,     904,    1074,    1075,    1092,    1091
    4017,     888,     889,     906,     905,    1075,    1076,    1093,    1092
    4018,     889,     890,     907,     906,    1076,    1077,    1094,    1093
    4019,     890,     891,     908,     907,    1077,    1078,    1095,    1094
    4020,     891,     892,     909,     908,    1078,    1079,    1096,    1095
    4021,     892,    5536,    5500,     909,    1079,    5194,    5193,    1096
    4022,     133,     893,    6192,    5564,     122,    1080,    6187,    2625
    4023,     893,     894,    6191,    6192,    1080,    1081,    6188,    6187
    4024,     894,     895,    5531,    6191,    1081,    1082,    2647,    6188
    4025,     895,     896,    6338,    5531,    1082,    1083,    6341,    2647
    4026,     896,     897,    6337,    6338,    1083,    1084,    6342,    6341
    4027,     897,     898,    5525,    6337,    1084,    1085,    2646,    6342
    4028,     898,     899,    6496,    5525,    1085,    1086,    6499,    2646
    4029,     899,     900,    6495,    6496,    1086,    1087,    6500,    6499
    4030,     900,     901,    5523,    6495,    1087,    1088,    2645,    6500
    4031,     901,     902,    6610,    5523,    1088,    1089,    6613,    2645
    4032,     902,     903,    6609,    6610,    1089,    1090,    6614,    6613
    4033,     903,     904,    5517,    6609,    1090,    1091,    2644,    6614
    4034,     904,     905,    6816,    5517,    1091,    1092,    6819,    2644
    4035,     905,     906,    6815,    6816,    1092,    1093,    6820,    6819
    4036,     906,     907,    5511,    6815,    1093,    1094,    2643,    6820
    4037,     907,     908,    5514,    5511,    1094,    1095,    5345,    2643
    4038,     908,     909,    5506,    5514,    1095,    1096,    5346,    5345
    4039,     909,    5500,    5498,    5506,    1096,    5193,    2599,    5346
    4040,      15,     196,     910,     112,      16,     213,    1097,     101
    4041,     196,     197,     911,     910,     213,     214,    1098,    1097
    4042,     197,     198,     912,     911,     214,     215,    1099,    1098
    4043,     198,     199,     913,     912,     215,     216,    1100,    1099
    4044,     199,     200,     914,     913,     216,     217,    1101,    1100
    4045,     200,     201,     915,     914,     217,     218,    1102,    1101
    4046,     201,     202,     916,     915,     218,     219,    1103,    1102
    4047,     202,     203,     917,     916,     219,     220,    1104,    1103
    4048,     203,     204,     918,     917,     220,     221,    1105,    1104
    4049,     204,     205,     919,     918,     221,     222,    1106,    1105
    4050,     205,     206,     920,     919,     222,     223,    1107,    1106
    4051,     206,     207,     921,     920,     223,     224,    1108,    1107
    4052,     207,     208,     922,     921,     224,     225,    1109,    1108
    4053,     208,     209,     923,     922,     225,     226,    1110,    1109
    4054,     209,     210,     924,     923,     226,     227,    1111,    1110
    4055,     210,     211,     925,     924,     227,     228,    1112,    1111
    4056,     211,     212,     926,     925,     228,     229,    1113,    1112
    4057,     212,    2608,    5422,     926,     229,    5910,    5907,    1113
    4058,     112,     910,     927,     113,     101,    1097,    1114,     102
    4059,     910,     911,     928,     927,    1097,    1098,    1115,    1114
    4060,     911,     912,     929,     928,    1098,    1099,    1116,    1115
    4061,     912,     913,     930,     929,    1099,    1100,    1117,    1116
    4062,     913,     914,     931,     930,    1100,    1101,    1118,    1117
    4063,     914,     915,     932,     931,    1101,    1102,    1119,    1118
    4064,     915,     916,     933,     932,    1102,    1103,    1120,    1119
    4065,     916,     917,     934,     933,    1103,    1104,    1121,    1120
    4066,     917,     918,     935,     934,    1104,    1105,    1122,    1121
    4067,     918,     919,     936,     935,    1105,    1106,    1123,    1122
    4068,     919,     920,     937,     936,    1106,    1107,    1124,    1123
    4069,     920,     921,     938,     937,    1107,    1108,    1125,    1124
    4070,     921,     922,     939,     938,    1108,    1109,    1126,    1125
    4071,     922,     923,     940,     939,    1109,    1110,    1127,    1126
    4072,     923,     924,     941,     940,    1110,    1111,    1128,    1127
    4073,     924,     925,     942,     941,    1111,    1112,    1129,    1128
    4074,     925,     926,     943,     942,    1112,    1113,    1130,    1129
    4075,     926,    5422,    5421,     943,    1113,    5907,    5877,    1130
    4076,     113,     927,     944,     114,     102,    1114,    1131,     103
    4077,     927,     928,     945,     944,    1114,    1115,    1132,    1131
    4078,     928,     929,     946,     945,    1115,    1116,    1133,    1132
    4079,     929,     930,     947,     946,    1116,    1117,    1134,    1133
    4080,     930,     931,     948,     947,    1117,    1118,    1135,    1134
    4081,     931,     932,     949,     948,    1118,    1119,    1136,    1135
    4082,     932,     933,     950,     949,    1119,    1120,    1137,    1136
    4083,     933,     934,     951,     950,    1120,    1121,    1138,    1137
    4084,     934,     935,     952,     951,    1121,    1122,    1139,    1138
    4085,     935,     936,     953,     952,    1122,    1123,    1140,    1139
    4086,     936,     937,     954,     953,    1123,    1124,    1141,    1140
    4087,     937,     938,     955,     954,    1124,    1125,    1142,    1141
    4088,     938,     939,     956,     955,    1125,    1126,    1143,    1142
    4089,     939,     940,     957,     956,    1126,    1127,    1144,    1143
    4090,     940,     941,     958,     957,    1127,    1128,    1145,    1144
    4091,     941,     942,     959,     958,    1128,    1129,    1146,    1145
    4092,     942,     943,     960,     959,    1129,    1130,    1147,    1146
    4093,     943,    5421,    2615,     960,    1130,    5877,    5876,    1147
    4094,     114,     944,     961,     115,     103,    1131,    1148,     104
    4095,     944,     945,     962,     961,    1131,    1132,    1149,    1148
    4096,     945,     946,     963,     962,    1132,    1133,    1150,    1149
    4097,     946,     947,     964,     963,    1133,    1134,    1151,    1150
    4098,     947,     948,     965,     964,    1134,    1135,    1152,    1151
    4099,     948,     949,     966,     965,    1135,    1136,    1153,    1152
    4100,     949,     950,     967,     966,    1136,    1137,    1154,    1153
    4101,     950,     951,     968,     967,    1137,    1138,    1155,    1154
    4102,     951,     952,     969,     968,    1138,    1139,    1156,    1155
    4103,     952,     953,     970,     969,    1139,    1140,    1157,    1156
    4104,     953,     954,     971,     970,    1140,    1141,    1158,    1157
    4105,     954,     955,     972,     971,    1141,    1142,    1159,    1158
    4106,     955,     956,     973,     972,    1142,    1143,    1160,    1159
    4107,     956,     957,     974,     973,    1143,    1144,    1161,    1160
    4108,     957,     958,     975,     974,    1144,    1145,    1162,    1161
    4109,     958,     959,     976,     975,    1145,    1146,    1163,    1162
    4110,     959,     960,     977,     976,    1146,    1147,    1164,    1163
    4111,     960,    2615,    5746,     977,    1147,    5876,    5869,    1164
    4112,     115,     961,     978,     116,     104,    1148,    1165,     105
    4113,     961,     962,     979,     978,    1148,    1149,    1166,    1165
    4114,     962,     963,     980,     979,    1149,    1150,    1167,    1166
    4115,     963,     964,     981,     980,    1150,    1151,    1168,    1167
    4116,     964,     965,     982,     981,    1151,    1152,    1169,    1168
    4117,     965,     966,     983,     982,    1152,    1153,    1170,    1169
    4118,     966,     967,     984,     983,    1153,    1154,    1171,    1170
    4119,     967,     968,     985,     984,    1154,    1155,    1172,    1171
    4120,     968,     969,     986,     985,    1155,    1156,    1173,    1172
    4121,     969,     970,     987,     986,    1156,    1157,    1174,    1173
    4122,     970,     971,     988,     987,    1157,    1158,    1175,    1174
    4123,     971,     972,     989,     988,    1158,    1159,    1176,    1175
    4124,     972,     973,     990,     989,    1159,    1160,    1177,    1176
    4125,     973,     974,     991,     990,    1160,    1161,    1178,    1177
    4126,     974,     975,     992,     991,    1161,    1162,    1179,    1178
    4127,     975,     976,     993,     992,    1162,    1163,    1180,    1179
    4128,     976,     977,     994,     993,    1163,    1164,    1181,    1180
    4129,     977,    5746,    5745,     994,    1164,    5869,    5867,    1181
    4130,     116,     978,     995,     117,     105,    1165,    1182,     106
    4131,     978,     979,     996,     995,    1165,    1166,    1183,    1182
    4132,     979,     980,     997,     996,    1166,    1167,    1184,    1183
    4133,     980,     981,     998,     997,    1167,    1168,    1185,    1184
    4134,     981,     982,     999,     998,    1168,    1169,    1186,    1185
    4135,     982,     983,    1000,     999,    1169,    1170,    1187,    1186
    4136,     983,     984,    1001,    1000,    1170,    1171,    1188,    1187
    4137,     984,     985,    1002,    1001,    1171,    1172,    1189,    1188
    4138,     985,     986,    1003,    1002,    1172,    1173,    1190,    1189
    4139,     986,     987,    1004,    1003,    1173,    1174,    1191,    1190
    4140,     987,     988,    1005,    1004,    1174,    1175,    1192,    1191
    4141,     988,     989,    1006,    1005,    1175,    1176,    1193,    1192
    4142,     989,     990,    1007,    1006,    1176,    1177,    1194,    1193
    4143,     990,     991,    1008,    1007,    1177,    1178,    1195,    1194
    4144,     991,     992,    1009,    1008,    1178,    1179,    1196,    1195
    4145,     992,     993,    1010,    1009,    1179,    1180,    1197,    1196
    4146,     993,     994,    1011,    1010,    1180,    1181,    1198,    1197
    4147,     994,    5745,    2616,    1011,    1181,    5867,    5862,    1198
    4148,     117,     995,    1012,     118,     106,    1182,    1199,     107
    4149,     995,     996,    1013,    1012,    1182,    1183,    1200,    1199
    4150,     996,     997,    1014,    1013,    1183,    1184,    1201,    1200
    4151,     997,     998,    1015,    1014,    1184,    1185,    1202,    1201
    4152,     998,     999,    1016,    1015,    1185,    1186,    1203,    1202
    4153,     999,    1000,    1017,    1016,    1186,    1187,    1204,    1203
    4154,    1000,    1001,    1018,    1017,    1187,    1188,    1205,    1204
    4155,    1001,    1002,    1019,    1018,    1188,    1189,    1206,    1205
    4156,    1002,    1003,    1020,    1019,    1189,    1190,    1207,    1206
    4157,    1003,    1004,    1021,    1020,    1190,    1191,    1208,    1207
    4158,    1004,    1005,    1022,    1021,    1191,    1192,    1209,    1208
    4159,    1005,    1006,    1023,    1022,    1192,    1193,    1210,    1209
    4160,    1006,    1007,    1024,    1023,    1193,    1194,    1211,    1210
    4161,    1007,    1008,    1025,    1024,    1194,    1195,    1212,    1211
    4162,    1008,    1009,    1026,    1025,    1195,    1196,    1213,    1212
    4163,    1009,    1010,    1027,    1026,    1196,    1197,    1214,    1213
    4164,    1010,    1011,    1028,    1027,    1197,    1198,    1215,    1214
    4165,    1011,    2616,    5632,    1028,    1198,    5862,    5859,    1215
    4166,     118,    1012,    1029,     119,     107,    1199,    1216,     108
    4167,    1012,    1013,    1030,    1029,    1199,    1200,    1217,    1216
    4168,    1013,    1014,    1031,    1030,    1200,    1201,    1218,    1217
    4169,    1014,    1015,    1032,    1031,    1201,    1202,    1219,    1218
    4170,    1015,    1016,    1033,    1032,    1202,    1203,    1220,    1219
    4171,    1016,    1017,    1034,    1033,    1203,    1204,    1221,    1220
    4172,    1017,    1018,    1035,    1034,    1204,    1205,    1222,    1221
    4173,    1018,    1019,    1036,    1035,    1205,    1206,    1223,    1222
    4174,    1019,    1020,    1037,    1036,    1206,    1207,    1224,    1223
    4175,    1020,    1021,    1038,    1037,    1207,    1208,    1225,    1224
    4176,    1021,    1022,    1039,    1038,    1208,    1209,    1226,    1225
    4177,    1022,    1023,    1040,    1039,    1209,    1210,    1227,    1226
    4178,    1023,    1024,    1041,    1040,    1210,    1211,    1228,    1227
    4179,    1024,    1025,    1042,    1041,    1211,    1212,    1229,    1228
    4180,    1025,    1026,    1043,    1042,    1212,    1213,    1230,    1229
    4181,    1026,    1027,    1044,    1043,    1213,    1214,    1231,    1230
    4182,    1027,    1028,    1045,    1044,    1214,    1215,    1232,    1231
    4183,    1028,    5632,    5631,    1045,    1215,    5859,    5853,    1232
    4184,     119,    1029,    1046,     120,     108,    1216,    1233,     109
    4185,    1029,    1030,    1047,    1046,    1216,    1217,    1234,    1233
    4186,    1030,    1031,    1048,    1047,    1217,    1218,    1235,    1234
    4187,    1031,    1032,    1049,    1048,    1218,    1219,    1236,    1235
    4188,    1032,    1033,    1050,    1049,    1219,    1220,    1237,    1236
    4189,    1033,    1034,    1051,    1050,    1220,    1221,    1238,    1237
    4190,    1034,    1035,    1052,    1051,    1221,    1222,    1239,    1238
    4191,    1035,    1036,    1053,    1052,    1222,    1223,    1240,    1239
    4192,    1036,    1037,    1054,    1053,    1223,    1224,    1241,    1240
    4193,    1037,    1038,    1055,    1054,    1224,    1225,    1242,    1241
    4194,    1038,    1039,    1056,    1055,    1225,    1226,    1243,    1242
    4195,    1039,    1040,    1057,    1056,    1226,    1227,    1244,    1243
    4196,    1040,    1041,    1058,    1057,    1227,    1228,    1245,    1244
    4197,    1041,    1042,    1059,    1058,    1228,    1229,    1246,    1245
    4198,    1042,    1043,    1060,    1059,    1229,    1230,    1247,    1246
    4199,    1043,    1044,    1061,    1060,    1230,    1231,    1248,    1247
    4200,    1044,    1045,    1062,    1061,    1231,    1232,    1249,    1248
    4201,    1045,    5631,    2617,    1062,    1232,    5853,    5852,    1249
    4202,     120,    1046,    1063,     121,     109,    1233,    1250,     110
    4203,    1046,    1047,    1064,    1063,    1233,    1234,    1251,    1250
    4204,    1047,    1048,    1065,    1064,    1234,    1235,    1252,    1251
    4205,    1048,    1049,    1066,    1065,    1235,    1236,    1253,    1252
    4206,    1049,    1050,    1067,    1066,    1236,    1237,    1254,    1253
    4207,    1050,    1051,    1068,    1067,    1237,    1238,    1255,    1254
    4208,    1051,    1052,    1069,    1068,    1238,    1239,    1256,    1255
    4209,    1052,    1053,    1070,    1069,    1239,    1240,    1257,    1256
    4210,    1053,    1054,    1071,    1070,    1240,    1241,    1258,    1257
    4211,    1054,    1055,    1072,    1071,    1241,    1242,    1259,    1258
    4212,    1055,    1056,    1073,    1072,    1242,    1243,    1260,    1259
    4213,    1056,    1057,    1074,    1073,    1243,    1244,    1261,    1260
    4214,    1057,    1058,    1075,    1074,    1244,    1245,    1262,    1261
    4215,    1058,    1059,    1076,    1075,    1245,    1246,    1263,    1262
    4216,    1059,    1060,    1077,    1076,    1246,    1247,    1264,    1263
    4217,    1060,    1061,    1078,    1077,    1247,    1248,    1265,    1264
    4218,    1061,    1062,    1079,    1078,    1248,    1249,    1266,    1265
    4219,    1062,    2617,    5194,    1079,    1249,    5852,    5845,    1266
    4220,     121,    1063,    1080,     122,     110,    1250,    1267,     111
    4221,    1063,    1064,    1081,    1080,    1250,    1251,    1268,    1267
    4222,    1064,    1065,    1082,    1081,    1251,    1252,    1269,    1268
    4223,    1065,    1066,    1083,    1082,    1252,    1253,    1270,    1269
    4224,    1066,    1067,    1084,    1083,    1253,    1254,    1271,    1270
    4225,    1067,    1068,    1085,    1084,    1254,    1255,    1272,    1271
    4226,    1068,    1069,    1086,    1085,    1255,    1256,    1273,    1272
    4227,    1069,    1070,    1087,    1086,    1256,    1257,    1274,    1273
    4228,    1070,    1071,    1088,    1087,    1257,    1258,    1275,    1274
    4229,    1071,    1072,    1089,    1088,    1258,    1259,    1276,    1275
    4230,    1072,    1073,    1090,    1089,    1259,    1260,    1277,    1276
    4231,    1073,    1074,    1091,    1090,    1260,    1261,    1278,    1277
    4232,    1074,    1075,    1092,    1091,    1261,    1262,    1279,    1278
    4233,    1075,    1076,    1093,    1092,    1262,    1263,    1280,    1279
    4234,    1076,    1077,    1094,    1093,    1263,    1264,    1281,    1280
    4235,    1077,    1078,    1095,    1094,    1264,    1265,    1282,    1281
    4236,    1078,    1079,    1096,    1095,    1265,    1266,    1283,    1282
    4237,    1079,    5194,    5193,    1096,    1266,    5845,    5843,    1283
    4238,     122,    1080,    6187,    2625,     111,    1267,    6184,    5899
    4239,    1080,    1081,    6188,    6187,    1267,    1268,    6183,    6184
    4240,    1081,    1082,    2647,    6188,    1268,    1269,    5894,    6183
    4241,    1082,    1083,    6341,    2647,    1269,    1270,    6280,    5894
    4242,    1083,    1084,    6342,    6341,    1270,    1271,    6279,    6280
    4243,    1084,    1085,    2646,    6342,    1271,    1272,    5902,    6279
    4244,    1085,    1086,    6499,    2646,    1272,    1273,    6438,    5902
    4245,    1086,    1087,    6500,    6499,    1273,    1274,    6437,    6438
    4246,    1087,    1088,    2645,    6500,    1274,    1275,    5892,    6437
    4247,    1088,    1089,    6613,    2645,    1275,    1276,    6596,    5892
    4248,    1089,    1090,    6614,    6613,    1276,    1277,    6595,    6596
    4249,    1090,    1091,    2644,    6614,    1277,    1278,    5888,    6595
    4250,    1091,    1092,    6819,    2644,    1278,    1279,    6826,    5888
    4251,    1092,    1093,    6820,    6819,    1279,    1280,    6825,    6826
    4252,    1093,    1094,    2643,    6820,    1280,    1281,    5884,    6825
    4253,    1094,    1095,    5345,    2643,    1281,    1282,    5827,    5884
    4254,    1095,    1096,    5346,    5345,    1282,    1283,    5829,    5827
    4255,    1096,    5193,    2599,    5346,    1283,    5843,    5839,    5829
    4256,      16,     213,    1097,     101,      17,     230,    1284,      90
    4257,     213,     214,    1098,    1097,     230,     231,    1285,    1284
    4258,     214,     215,    1099,    1098,     231,     232,    1286,    1285
    4259,     215,     216,    1100,    1099,     232,     233,    1287,    1286
    4260,     216,     217,    1101,    1100,     233,     234,    1288,    1287
    4261,     217,     218,    1102,    1101,     234,     235,    1289,    1288
    4262,     218,     219,    1103,    1102,     235,     236,    1290,    1289
    4263,     219,     220,    1104,    1103,     236,     237,    1291,    1290
    4264,     220,     221,    1105,    1104,     237,     238,    1292,    1291
    4265,     221,     222,    1106,    1105,     238,     239,    1293,    1292
    4266,     222,     223,    1107,    1106,     239,     240,    1294,    1293
    4267,     223,     224,    1108,    1107,     240,     241,    1295,    1294
    4268,     224,     225,    1109,    1108,     241,     242,    1296,    1295
    4269,     225,     226,    1110,    1109,     242,     243,    1297,    1296
    4270,     226,     227,    1111,    1110,     243,     244,    1298,    1297
    4271,     227,     228,    1112,    1111,     244,     245,    1299,    1298
    4272,     228,     229,    1113,    1112,     245,     246,    1300,    1299
    4273,     229,    5910,    5907,    1113,     246,    5909,    5908,    1300
    4274,     101,    1097,    1114,     102,      90,    1284,    1301,      91
    4275,    1097,    1098,    1115,    1114,    1284,    1285,    1302,    1301
    4276,    1098,    1099,    1116,    1115,    1285,    1286,    1303,    1302
    4277,    1099,    1100,    1117,    1116,    1286,    1287,    1304,    1303
    4278,    1100,    1101,    1118,    1117,    1287,    1288,    1305,    1304
    4279,    1101,    1102,    1119,    1118,    1288,    1289,    1306,    1305
    4280,    1102,    1103,    1120,    1119,    1289,    1290,    1307,    1306
    4281,    1103,    1104,    1121,    1120,    1290,    1291,    1308,    1307
    4282,    1104,    1105,    1122,    1121,    1291,    1292,    1309,    1308
    4283,    1105,    1106,    1123,    1122,    1292,    1293,    1310,    1309
    4284,    1106,    1107,    1124,    1123,    1293,    1294,    1311,    1310
    4285,    1107,    1108,    1125,    1124,    1294,    1295,    1312,    1311
    4286,    1108,    1109,    1126,    1125,    1295,    1296,    1313,    1312
    4287,    1109,    1110,    1127,    1126,    1296,    1297,    1314,    1313
    4288,    1110,    1111,    1128,    1127,    1297,    1298,    1315,    1314
    4289,    1111,    1112,    1129,    1128,    1298,    1299,    1316,    1315
    4290,    1112,    1113,    1130,    1129,    1299,    1300,    1317,    1316
    4291,    1113,    5907,    5877,    1130,    1300,    5908,    5878,    1317
    4292,     102,    1114,    1131,     103,      91,    1301,    1318,      92
    4293,    1114,    1115,    1132,    1131,    1301,    1302,    1319,    1318
    4294,    1115,    1116,    1133,    1132,    1302,    1303,    1320,    1319
    4295,    1116,    1117,    1134,    1133,    1303,    1304,    1321,    1320
    4296,    1117,    1118,    1135,    1134,    1304,    1305,    1322,    1321
    4297,    1118,    1119,    1136,    1135,    1305,    1306,    1323,    1322
    4298,    1119,    1120,    1137,    1136,    1306,    1307,    1324,    1323
    4299,    1120,    1121,    1138,    1137,    1307,    1308,    1325,    1324
    4300,    1121,    1122,    1139,    1138,    1308,    1309,    1326,    1325
    4301,    1122,    1123,    1140,    1139,    1309,    1310,    1327,    1326
    4302,    1123,    1124,    1141,    1140,    1310,    1311,    1328,    1327
    4303,    1124,    1125,    1142,    1141,    1311,    1312,    1329,    1328
    4304,    1125,    1126,    1143,    1142,    1312,    1313,    1330,    1329
    4305,    1126,    1127,    1144,    1143,    1313,    1314,    1331,    1330
    4306,    1127,    1128,    1145,    1144,    1314,    1315,    1332,    1331
    4307,    1128,    1129,    1146,    1145,    1315,    1316,    1333,    1332
    4308,    1129,    1130,    1147,    1146,    1316,    1317,    1334,    1333
    4309,    1130,    5877,    5876,    1147,    1317,    5878,    5875,    1334
    4310,     103,    1131,    1148,     104,      92,    1318,    1335,      93
    4311,    1131,    1132,    1149,    1148,    1318,    1319,    1336,    1335
    4312,    1132,    1133,    1150,    1149,    1319,    1320,    1337,    1336
    4313,    1133,    1134,    1151,    1150,    1320,    1321,    1338,    1337
    4314,    1134,    1135,    1152,    1151,    1321,    1322,    1339,    1338
    4315,    1135,    1136,    1153,    1152,    1322,    1323,    1340,    1339
    4316,    1136,    1137,    1154,    1153,    1323,    1324,    1341,    1340
    4317,    1137,    1138,    1155,    1154,    1324,    1325,    1342,    1341
    4318,    1138,    1139,    1156,    1155,    1325,    1326,    1343,    1342
    4319,    1139,    1140,    1157,    1156,    1326,    1327,    1344,    1343
    4320,    1140,    1141,    1158,    1157,    1327,    1328,    1345,    1344
    4321,    1141,    1142,    1159,    1158,    1328,    1329,    1346,    1345
    4322,    1142,    1143,    1160,    1159,    1329,    1330,    1347,    1346
    4323,    1143,    1144,    1161,    1160,    1330,    1331,    1348,    1347
    4324,    1144,    1145,    1162,    1161,    1331,    1332,    1349,    1348
    4325,    1145,    1146,    1163,    1162,    1332,    1333,    1350,    1349
    4326,    1146,    1147,    1164,    1163,    1333,    1334,    1351,    1350
    4327,    1147,    5876,    5869,    1164,    1334,    5875,    5870,    1351
    4328,     104,    1148,    1165,     105,      93,    1335,    1352,      94
    4329,    1148,    1149,    1166,    1165,    1335,    1336,    1353,    1352
    4330,    1149,    1150,    1167,    1166,    1336,    1337,    1354,    1353
    4331,    1150,    1151,    1168,    1167,    1337,    1338,    1355,    1354
    4332,    1151,    1152,    1169,    1168,    1338,    1339,    1356,    1355
    4333,    1152,    1153,    1170,    1169,    1339,    1340,    1357,    1356
    4334,    1153,    1154,    1171,    1170,    1340,    1341,    1358,    1357
    4335,    1154,    1155,    1172,    1171,    1341,    1342,    1359,    1358
    4336,    1155,    1156,    1173,    1172,    1342,    1343,    1360,    1359
    4337,    1156,    1157,    1174,    1173,    1343,    1344,    1361,    1360
    4338,    1157,    1158,    1175,    1174,    1344,    1345,    1362,    1361
    4339,    1158,    1159,    1176,    1175,    1345,    1346,    1363,    1362
    4340,    1159,    1160,    1177,    1176,    1346,    1347,    1364,    1363
    4341,    1160,    1161,    1178,    1177,    1347,    1348,    1365,    1364
    4342,    1161,    1162,    1179,    1178,    1348,    1349,    1366,    1365
    4343,    1162,    1163,    1180,    1179,    1349,    1350,    1367,    1366
    4344,    1163,    1164,    1181,    1180,    1350,    1351,    1368,    1367
    4345,    1164,    5869,    5867,    1181,    1351,    5870,    5868,    1368
    4346,     105,    1165,    1182,     106,      94,    1352,    1369,      95
    4347,    1165,    1166,    1183,    1182,    1352,    1353,    1370,    1369
    4348,    1166,    1167,    1184,    1183,    1353,    1354,    1371,    1370
    4349,    1167,    1168,    1185,    1184,    1354,    1355,    1372,    1371
    4350,    1168,    1169,    1186,    1185,    1355,    1356,    1373,    1372
    4351,    1169,    1170,    1187,    1186,    1356,    1357,    1374,    1373
    4352,    1170,    1171,    1188,    1187,    1357,    1358,    1375,    1374
    4353,    1171,    1172,    1189,    1188,    1358,    1359,    1376,    1375
    4354,    1172,    1173,    1190,    1189,    1359,    1360,    1377,    1376
    4355,    1173,    1174,    1191,    1190,    1360,    1361,    1378,    1377
    4356,    1174,    1175,    1192,    1191,    1361,    1362,    1379,    1378
    4357,    1175,    1176,    1193,    1192,    1362,    1363,    1380,    1379
    4358,    1176,    1177,    1194,    1193,    1363,    1364,    1381,    1380
    4359,    1177,    1178,    1195,    1194,    1364,    1365,    1382,    1381
    4360,    1178,    1179,    1196,    1195,    1365,    1366,    1383,    1382
    4361,    1179,    1180,    1197,    1196,    1366,    1367,    1384,    1383
    4362,    1180,    1181,    1198,    1197,    1367,    1368,    1385,    1384
    4363,    1181,    5867,    5862,    1198,    1368,    5868,    5861,    1385
    4364,     106,    1182,    1199,     107,      95,    1369,    1386,      96
    4365,    1182,    1183,    1200,    1199,    1369,    1370,    1387,    1386
    4366,    1183,    1184,    1201,    1200,    1370,    1371,    1388,    1387
    4367,    1184,    1185,    1202,    1201,    1371,    1372,    1389,    1388
    4368,    1185,    1186,    1203,    1202,    1372,    1373,    1390,    1389
    4369,    1186,    1187,    1204,    1203,    1373,    1374,    1391,    1390
    4370,    1187,    1188,    1205,    1204,    1374,    1375,    1392,    1391
    4371,    1188,    1189,    1206,    1205,    1375,    1376,    1393,    1392
    4372,    1189,    1190,    1207,    1206,    1376,    1377,    1394,    1393
    4373,    1190,    1191,    1208,    1207,    1377,    1378,    1395,    1394
    4374,    1191,    1192,    1209,    1208,    1378,    1379,    1396,    1395
    4375,    1192,    1193,    1210,    1209,    1379,    1380,    1397,    1396
    4376,    1193,    1194,    1211,    1210,    1380,    1381,    1398,    1397
    4377,    1194,    1195,    1212,    1211,    1381,    1382,    1399,    1398
    4378,    1195,    1196,    1213,    1212,    1382,    1383,    1400,    1399
    4379,    1196,    1197,    1214,    1213,    1383,    1384,    1401,    1400
    4380,    1197,    1198,    1215,    1214,    1384,    1385,    1402,    1401
    4381,    1198,    5862,    5859,    1215,    1385,    5861,    5860,    1402
    4382,     107,    1199,    1216,     108,      96,    1386,    1403,      97
    4383,    1199,    1200,    1217,    1216,    1386,    1387,    1404,    1403
    4384,    1200,    1201,    1218,    1217,    1387,    1388,    1405,    1404
    4385,    1201,    1202,    1219,    1218,    1388,    1389,    1406,    1405
    4386,    1202,    1203,    1220,    1219,    1389,    1390,    1407,    1406
    4387,    1203,    1204,    1221,    1220,    1390,    1391,    1408,    1407
    4388,    1204,    1205,    1222,    1221,    1391,    1392,    1409,    1408
    4389,    1205,    1206,    1223,    1222,    1392,    1393,    1410,    1409
    4390,    1206,    1207,    1224,    1223,    1393,    1394,    1411,    1410
    4391,    1207,    1208,    1225,    1224,    1394,    1395,    1412,    1411
    4392,    1208,    1209,    1226,    1225,    1395,    1396,    1413,    1412
    4393,    1209,    1210,    1227,    1226,    1396,    1397,    1414,    1413
    4394,    1210,    1211,    1228,    1227,    1397,    1398,    1415,    1414
    4395,    1211,    1212,    1229,    1228,    1398,    1399,    1416,    1415
    4396,    1212,    1213,    1230,    1229,    1399,    1400,    1417,    1416
    4397,    1213,    1214,    1231,    1230,    1400,    1401,    1418,    1417
    4398,    1214,    1215,    1232,    1231,    1401,    1402,    1419,    1418
    4399,    1215,    5859,    5853,    1232,    1402,    5860,    5854,    1419
    4400,     108,    1216,    1233,     109,      97,    1403,    1420,      98
    4401,    1216,    1217,    1234,    1233,    1403,    1404,    1421,    1420
    4402,    1217,    1218,    1235,    1234,    1404,    1405,    1422,    1421
    4403,    1218,    1219,    1236,    1235,    1405,    1406,    1423,    1422
    4404,    1219,    1220,    1237,    1236,    1406,    1407,    1424,    1423
    4405,    1220,    1221,    1238,    1237,    1407,    1408,    1425,    1424
    4406,    1221,    1222,    1239,    1238,    1408,    1409,    1426,    1425
    4407,    1222,    1223,    1240,    1239,    1409,    1410,    1427,    1426
    4408,    1223,    1224,    1241,    1240,    1410,    1411,    1428,    1427
    4409,    1224,    1225,    1242,    1241,    1411,    1412,    1429,    1428
    4410,    1225,    1226,    1243,    1242,    1412,    1413,    1430,    1429
    4411,    1226,    1227,    1244,    1243,    1413,    1414,    1431,    1430
    4412,    1227,    1228,    1245,    1244,    1414,    1415,    1432,    1431
    4413,    1228,    1229,    1246,    1245,    1415,    1416,    1433,    1432
    4414,    1229,    1230,    1247,    1246,    1416,    1417,    1434,    1433
    4415,    1230,    1231,    1248,    1247,    1417,    1418,    1435,    1434
    4416,    1231,    1232,    1249,    1248,    1418,    1419,    1436,    1435
    4417,    1232,    5853,    5852,    1249,    1419,    5854,    5851,    1436
    4418,     109,    1233,    1250,     110,      98,    1420,    1437,      99
    4419,    1233,    1234,    1251,    1250,    1420,    1421,    1438,    1437
    4420,    1234,    1235,    1252,    1251,    1421,    1422,    1439,    1438
    4421,    1235,    1236,    1253,    1252,    1422,    1423,    1440,    1439
    4422,    1236,    1237,    1254,    1253,    1423,    1424,    1441,    1440
    4423,    1237,    1238,    1255,    1254,    1424,    1425,    1442,    1441
    4424,    1238,    1239,    1256,    1255,    1425,    1426,    1443,    1442
    4425,    1239,    1240,    1257,    1256,    1426,    1427,    1444,    1443
    4426,    1240,    1241,    1258,    1257,    1427,    1428,    1445,    1444
    4427,    1241,    1242,    1259,    1258,    1428,    1429,    1446,    1445
    4428,    1242,    1243,    1260,    1259,    1429,    1430,    1447,    1446
    4429,    1243,    1244,    1261,    1260,    1430,    1431,    1448,    1447
    4430,    1244,    1245,    1262,    1261,    1431,    1432,    1449,    1448
    4431,    1245,    1246,    1263,    1262,    1432,    1433,    1450,    1449
    4432,    1246,    1247,    1264,    1263,    1433,    1434,    1451,    1450
    4433,    1247,    1248,    1265,    1264,    1434,    1435,    1452,    1451
    4434,    1248,    1249,    1266,    1265,    1435,    1436,    1453,    1452
    4435,    1249,    5852,    5845,    1266,    1436,    5851,    5846,    1453
    4436,     110,    1250,    1267,     111,      99,    1437,    1454,     100
    4437,    1250,    1251,    1268,    1267,    1437,    1438,    1455,    1454
    4438,    1251,    1252,    1269,    1268,    1438,    1439,    1456,    1455
    4439,    1252,    1253,    1270,    1269,    1439,    1440,    1457,    1456
    4440,    1253,    1254,    1271,    1270,    1440,    1441,    1458,    1457
    4441,    1254,    1255,    1272,    1271,    1441,    1442,    1459,    1458
    4442,    1255,    1256,    1273,    1272,    1442,    1443,    1460,    1459
    4443,    1256,    1257,    1274,    1273,    1443,    1444,    1461,    1460
    4444,    1257,    1258,    1275,    1274,    1444,    1445,    1462,    1461
    4445,    1258,    1259,    1276,    1275,    1445,    1446,    1463,    1462
    4446,    1259,    1260,    1277,    1276,    1446,    1447,    1464,    1463
    4447,    1260,    1261,    1278,    1277,    1447,    1448,    1465,    1464
    4448,    1261,    1262,    1279,    1278,    1448,    1449,    1466,    1465
    4449,    1262,    1263,    1280,    1279,    1449,    1450,    1467,    1466
    4450,    1263,    1264,    1281,    1280,    1450,    1451,    1468,    1467
    4451,    1264,    1265,    1282,    1281,    1451,    1452,    1469,    1468
    4452,    1265,    1266,    1283,    1282,    1452,    1453,    1470,    1469
    4453,    1266,    5845,    5843,    1283,    1453,    5846,    5844,    1470
    4454,     111,    1267,    6184,    5899,     100,    1454,    6180,    5900
    4455,    1267,    1268,    6183,    6184,    1454,    1455,    6179,    6180
    4456,    1268,    1269,    5894,    6183,    1455,    1456,    5893,    6179
    4457,    1269,    1270,    6280,    5894,    1456,    1457,    6272,    5893
    4458,    1270,    1271,    6279,    6280,    1457,    1458,    6271,    6272
    4459,    1271,    1272,    5902,    6279,    1458,    1459,    5901,    6271
    4460,    1272,    1273,    6438,    5902,    1459,    1460,    6430,    5901
    4461,    1273,    1274,    6437,    6438,    1460,    1461,    6429,    6430
    4462,    1274,    1275,    5892,    6437,    1461,    1462,    5891,    6429
    4463,    1275,    1276,    6596,    5892,    1462,    1463,    6588,    5891
    4464,    1276,    1277,    6595,    6596,    1463,    1464,    6587,    6588
    4465,    1277,    1278,    5888,    6595,    1464,    1465,    5887,    6587
    4466,    1278,    1279,    6826,    5888,    1465,    1466,    6762,    5887
    4467,    1279,    1280,    6825,    6826,    1466,    1467,    6761,    6762
    4468,    1280,    1281,    5884,    6825,    1467,    1468,    5883,    6761
    4469,    1281,    1282,    5827,    5884,    1468,    1469,    5828,    5883
    4470,    1282,    1283,    5829,    5827,    1469,    1470,    5830,    5828
    4471,    1283,    5843,    5839,    5829,    1470,    5844,    5840,    5830
    4472,      17,     230,    1284,      90,      18,     247,    1471,      79
    4473,     230,     231,    1285,    1284,     247,     248,    1472,    1471
    4474,     231,     232,    1286,    1285,     248,     249,    1473,    1472
    4475,     232,     233,    1287,    1286,     249,     250,    1474,    1473
    4476,     233,     234,    1288,    1287,     250,     251,    1475,    1474
    4477,     234,     235,    1289,    1288,     251,     252,    1476,    1475
    4478,     235,     236,    1290,    1289,     252,     253,    1477,    1476
    4479,     236,     237,    1291,    1290,     253,     254,    1478,    1477
    4480,     237,     238,    1292,    1291,     254,     255,    1479,    1478
    4481,     238,     239,    1293,    1292,     255,     256,    1480,    1479
    4482,     239,     240,    1294,    1293,     256,     257,    1481,    1480
    4483,     240,     241,    1295,    1294,     257,     258,    1482,    1481
    4484,     241,     242,    1296,    1295,     258,     259,    1483,    1482
    4485,     242,     243,    1297,    1296,     259,     260,    1484,    1483
    4486,     243,     244,    1298,    1297,     260,     261,    1485,    1484
    4487,     244,     245,    1299,    1298,     261,     262,    1486,    1485
    4488,     245,     246,    1300,    1299,     262,     263,    1487,    1486
    4489,     246,    5909,    5908,    1300,     263,    2607,    5456,    1487
    4490,      90,    1284,    1301,      91,      79,    1471,    1488,      80
    4491,    1284,    1285,    1302,    1301,    1471,    1472,    1489,    1488
    4492,    1285,    1286,    1303,    1302,    1472,    1473,    1490,    1489
    4493,    1286,    1287,    1304,    1303,    1473,    1474,    1491,    1490
    4494,    1287,    1288,    1305,    1304,    1474,    1475,    1492,    1491
    4495,    1288,    1289,    1306,    1305,    1475,    1476,    1493,    1492
    4496,    1289,    1290,    1307,    1306,    1476,    1477,    1494,    1493
    4497,    1290,    1291,    1308,    1307,    1477,    1478,    1495,    1494
    4498,    1291,    1292,    1309,    1308,    1478,    1479,    1496,    1495
    4499,    1292,    1293,    1310,    1309,    1479,    1480,    1497,    1496
    4500,    1293,    1294,    1311,    1310,    1480,    1481,    1498,    1497
    4501,    1294,    1295,    1312,    1311,    1481,    1482,    1499,    1498
    4502,    1295,    1296,    1313,    1312,    1482,    1483,    1500,    1499
    4503,    1296,    1297,    1314,    1313,    1483,    1484,    1501,    1500
    4504,    1297,    1298,    1315,    1314,    1484,    1485,    1502,    1501
    4505,    1298,    1299,    1316,    1315,    1485,    1486,    1503,    1502
    4506,    1299,    1300,    1317,    1316,    1486,    1487,    1504,    1503
    4507,    1300,    5908,    5878,    1317,    1487,    5456,    5455,    1504
    4508,      91,    1301,    1318,      92,      80,    1488,    1505,      81
    4509,    1301,    1302,    1319,    1318,    1488,    1489,    1506,    1505
    4510,    1302,    1303,    1320,    1319,    1489,    1490,    1507,    1506
    4511,    1303,    1304,    1321,    1320,    1490,    1491,    1508,    1507
    4512,    1304,    1305,    1322,    1321,    1491,    1492,    1509,    1508
    4513,    1305,    1306,    1323,    1322,    1492,    1493,    1510,    1509
    4514,    1306,    1307,    1324,    1323,    1493,    1494,    1511,    1510
    4515,    1307,    1308,    1325,    1324,    1494,    1495,    1512,    1511
    4516,    1308,    1309,    1326,    1325,    1495,    1496,    1513,    1512
    4517,    1309,    1310,    1327,    1326,    1496,    1497,    1514,    1513
    4518,    1310,    1311,    1328,    1327,    1497,    1498,    1515,    1514
    4519,    1311,    1312,    1329,    1328,    1498,    1499,    1516,    1515
    4520,    1312,    1313,    1330,    1329,    1499,    1500,    1517,    1516
    4521,    1313,    1314,    1331,    1330,    1500,    1501,    1518,    1517
    4522,    1314,    1315,    1332,    1331,    1501,    1502,    1519,    1518
    4523,    1315,    1316,    1333,    1332,    1502,    1503,    1520,    1519
    4524,    1316,    1317,    1334,    1333,    1503,    1504,    1521,    1520
    4525,    1317,    5878,    5875,    1334,    1504,    5455,    2612,    1521
    4526,      92,    1318,    1335,      93,      81,    1505,    1522,      82
    4527,    1318,    1319,    1336,    1335,    1505,    1506,    1523,    1522
    4528,    1319,    1320,    1337,    1336,    1506,    1507,    1524,    1523
    4529,    1320,    1321,    1338,    1337,    1507,    1508,    1525,    1524
    4530,    1321,    1322,    1339,    1338,    1508,    1509,    1526,    1525
    4531,    1322,    1323,    1340,    1339,    1509,    1510,    1527,    1526
    4532,    1323,    1324,    1341,    1340,    1510,    1511,    1528,    1527
    4533,    1324,    1325,    1342,    1341,    1511,    1512,    1529,    1528
    4534,    1325,    1326,    1343,    1342,    1512,    1513,    1530,    1529
    4535,    1326,    1327,    1344,    1343,    1513,    1514,    1531,    1530
    4536,    1327,    1328,    1345,    1344,    1514,    1515,    1532,    1531
    4537,    1328,    1329,    1346,    1345,    1515,    1516,    1533,    1532
    4538,    1329,    1330,    1347,    1346,    1516,    1517,    1534,    1533
    4539,    1330,    1331,    1348,    1347,    1517,    1518,    1535,    1534
    4540,    1331,    1332,    1349,    1348,    1518,    1519,    1536,    1535
    4541,    1332,    1333,    1350,    1349,    1519,    1520,    1537,    1536
    4542,    1333,    1334,    1351,    1350,    1520,    1521,    1538,    1537
    4543,    1334,    5875,    5870,    1351,    1521,    2612,    5744,    1538
    4544,      93,    1335,    1352,      94,      82,    1522,    1539,      83
    4545,    1335,    1336,    1353,    1352,    1522,    1523,    1540,    1539
    4546,    1336,    1337,    1354,    1353,    1523,    1524,    1541,    1540
    4547,    1337,    1338,    1355,    1354,    1524,    1525,    1542,    1541
    4548,    1338,    1339,    1356,    1355,    1525,    1526,    1543,    1542
    4549,    1339,    1340,    1357,    1356,    1526,    1527,    1544,    1543
    4550,    1340,    1341,    1358,    1357,    1527,    1528,    1545,    1544
    4551,    1341,    1342,    1359,    1358,    1528,    1529,    1546,    1545
    4552,    1342,    1343,    1360,    1359,    1529,    1530,    1547,    1546
    4553,    1343,    1344,    1361,    1360,    1530,    1531,    1548,    1547
    4554,    1344,    1345,    1362,    1361,    1531,    1532,    1549,    1548
    4555,    1345,    1346,    1363,    1362,    1532,    1533,    1550,    1549
    4556,    1346,    1347,    1364,    1363,    1533,    1534,    1551,    1550
    4557,    1347,    1348,    1365,    1364,    1534,    1535,    1552,    1551
    4558,    1348,    1349,    1366,    1365,    1535,    1536,    1553,    1552
    4559,    1349,    1350,    1367,    1366,    1536,    1537,    1554,    1553
    4560,    1350,    1351,    1368,    1367,    1537,    1538,    1555,    1554
    4561,    1351,    5870,    5868,    1368,    1538,    5744,    5743,    1555
    4562,      94,    1352,    1369,      95,      83,    1539,    1556,      84
    4563,    1352,    1353,    1370,    1369,    1539,    1540,    1557,    1556
    4564,    1353,    1354,    1371,    1370,    1540,    1541,    1558,    1557
    4565,    1354,    1355,    1372,    1371,    1541,    1542,    1559,    1558
    4566,    1355,    1356,    1373,    1372,    1542,    1543,    1560,    1559
    4567,    1356,    1357,    1374,    1373,    1543,    1544,    1561,    1560
    4568,    1357,    1358,    1375,    1374,    1544,    1545,    1562,    1561
    4569,    1358,    1359,    1376,    1375,    1545,    1546,    1563,    1562
    4570,    1359,    1360,    1377,    1376,    1546,    1547,    1564,    1563
    4571,    1360,    1361,    1378,    1377,    1547,    1548,    1565,    1564
    4572,    1361,    1362,    1379,    1378,    1548,    1549,    1566,    1565
    4573,    1362,    1363,    1380,    1379,    1549,    1550,    1567,    1566
    4574,    1363,    1364,    1381,    1380,    1550,    1551,    1568,    1567
    4575,    1364,    1365,    1382,    1381,    1551,    1552,    1569,    1568
    4576,    1365,    1366,    1383,    1382,    1552,    1553,    1570,    1569
    4577,    1366,    1367,    1384,    1383,    1553,    1554,    1571,    1570
    4578,    1367,    1368,    1385,    1384,    1554,    1555,    1572,    1571
    4579,    1368,    5868,    5861,    1385,    1555,    5743,    2613,    1572
    4580,      95,    1369,    1386,      96,      84,    1556,    1573,      85
    4581,    1369,    1370,    1387,    1386,    1556,    1557,    1574,    1573
    4582,    1370,    1371,    1388,    1387,    1557,    1558,    1575,    1574
    4583,    1371,    1372,    1389,    1388,    1558,    1559,    1576,    1575
    4584,    1372,    1373,    1390,    1389,    1559,    1560,    1577,    1576
    4585,    1373,    1374,    1391,    1390,    1560,    1561,    1578,    1577
    4586,    1374,    1375,    1392,    1391,    1561,    1562,    1579,    1578
    4587,    1375,    1376,    1393,    1392,    1562,    1563,    1580,    1579
    4588,    1376,    1377,    1394,    1393,    1563,    1564,    1581,    1580
    4589,    1377,    1378,    1395,    1394,    1564,    1565,    1582,    1581
    4590,    1378,    1379,    1396,    1395,    1565,    1566,    1583,    1582
    4591,    1379,    1380,    1397,    1396,    1566,    1567,    1584,    1583
    4592,    1380,    1381,    1398,    1397,    1567,    1568,    1585,    1584
    4593,    1381,    1382,    1399,    1398,    1568,    1569,    1586,    1585
    4594,    1382,    1383,    1400,    1399,    1569,    1570,    1587,    1586
    4595,    1383,    1384,    1401,    1400,    1570,    1571,    1588,    1587
    4596,    1384,    1385,    1402,    1401,    1571,    1572,    1589,    1588
    4597,    1385,    5861,    5860,    1402,    1572,    2613,    5630,    1589
    4598,      96,    1386,    1403,      97,      85,    1573,    1590,      86
    4599,    1386,    1387,    1404,    1403,    1573,    1574,    1591,    1590
    4600,    1387,    1388,    1405,    1404,    1574,    1575,    1592,    1591
    4601,    1388,    1389,    1406,    1405,    1575,    1576,    1593,    1592
    4602,    1389,    1390,    1407,    1406,    1576,    1577,    1594,    1593
    4603,    1390,    1391,    1408,    1407,    1577,    1578,    1595,    1594
    4604,    1391,    1392,    1409,    1408,    1578,    1579,    1596,    1595
    4605,    1392,    1393,    1410,    1409,    1579,    1580,    1597,    1596
    4606,    1393,    1394,    1411,    1410,    1580,    1581,    1598,    1597
    4607,    1394,    1395,    1412,    1411,    1581,    1582,    1599,    1598
    4608,    1395,    1396,    1413,    1412,    1582,    1583,    1600,    1599
    4609,    1396,    1397,    1414,    1413,    1583,    1584,    1601,    1600
    4610,    1397,    1398,    1415,    1414,    1584,    1585,    1602,    1601
    4611,    1398,    1399,    1416,    1415,    1585,    1586,    1603,    1602
    4612,    1399,    1400,    1417,    1416,    1586,    1587,    1604,    1603
    4613,    1400,    1401,    1418,    1417,    1587,    1588,    1605,    1604
    4614,    1401,    1402,    1419,    1418,    1588,    1589,    1606,    1605
    4615,    1402,    5860,    5854,    1419,    1589,    5630,    5629,    1606
    4616,      97,    1403,    1420,      98,      86,    1590,    1607,      87
    4617,    1403,    1404,    1421,    1420,    1590,    1591,    1608,    1607
    4618,    1404,    1405,    1422,    1421,    1591,    1592,    1609,    1608
    4619,    1405,    1406,    1423,    1422,    1592,    1593,    1610,    1609
    4620,    1406,    1407,    1424,    1423,    1593,    1594,    1611,    1610
    4621,    1407,    1408,    1425,    1424,    1594,    1595,    1612,    1611
    4622,    1408,    1409,    1426,    1425,    1595,    1596,    1613,    1612
    4623,    1409,    1410,    1427,    1426,    1596,    1597,    1614,    1613
    4624,    1410,    1411,    1428,    1427,    1597,    1598,    1615,    1614
    4625,    1411,    1412,    1429,    1428,    1598,    1599,    1616,    1615
    4626,    1412,    1413,    1430,    1429,    1599,    1600,    1617,    1616
    4627,    1413,    1414,    1431,    1430,    1600,    1601,    1618,    1617
    4628,    1414,    1415,    1432,    1431,    1601,    1602,    1619,    1618
    4629,    1415,    1416,    1433,    1432,    1602,    1603,    1620,    1619
    4630,    1416,    1417,    1434,    1433,    1603,    1604,    1621,    1620
    4631,    1417,    1418,    1435,    1434,    1604,    1605,    1622,    1621
    4632,    1418,    1419,    1436,    1435,    1605,    1606,    1623,    1622
    4633,    1419,    5854,    5851,    1436,    1606,    5629,    2614,    1623
    4634,      98,    1420,    1437,      99,      87,    1607,    1624,      88
    4635,    1420,    1421,    1438,    1437,    1607,    1608,    1625,    1624
    4636,    1421,    1422,    1439,    1438,    1608,    1609,    1626,    1625
    4637,    1422,    1423,    1440,    1439,    1609,    1610,    1627,    1626
    4638,    1423,    1424,    1441,    1440,    1610,    1611,    1628,    1627
    4639,    1424,    1425,    1442,    1441,    1611,    1612,    1629,    1628
    4640,    1425,    1426,    1443,    1442,    1612,    1613,    1630,    1629
    4641,    1426,    1427,    1444,    1443,    1613,    1614,    1631,    1630
    4642,    1427,    1428,    1445,    1444,    1614,    1615,    1632,    1631
    4643,    1428,    1429,    1446,    1445,    1615,    1616,    1633,    1632
    4644,    1429,    1430,    1447,    1446,    1616,    1617,    1634,    1633
    4645,    1430,    1431,    1448,    1447,    1617,    1618,    1635,    1634
    4646,    1431,    1432,    1449,    1448,    1618,    1619,    1636,    1635
    4647,    1432,    1433,    1450,    1449,    1619,    1620,    1637,    1636
    4648,    1433,    1434,    1451,    1450,    1620,    1621,    1638,    1637
    4649,    1434,    1435,    1452,    1451,    1621,    1622,    1639,    1638
    4650,    1435,    1436,    1453,    1452,    1622,    1623,    1640,    1639
    4651,    1436,    5851,    5846,    1453,    1623,    2614,    5166,    1640
    4652,      99,    1437,    1454,     100,      88,    1624,    1641,      89
    4653,    1437,    1438,    1455,    1454,    1624,    1625,    1642,    1641
    4654,    1438,    1439,    1456,    1455,    1625,    1626,    1643,    1642
    4655,    1439,    1440,    1457,    1456,    1626,    1627,    1644,    1643
    4656,    1440,    1441,    1458,    1457,    1627,    1628,    1645,    1644
    4657,    1441,    1442,    1459,    1458,    1628,    1629,    1646,    1645
    4658,    1442,    1443,    1460,    1459,    1629,    1630,    1647,    1646
    4659,    1443,    1444,    1461,    1460,    1630,    1631,    1648,    1647
    4660,    1444,    1445,    1462,    1461,    1631,    1632,    1649,    1648
    4661,    1445,    1446,    1463,    1462,    1632,    1633,    1650,    1649
    4662,    1446,    1447,    1464,    1463,    1633,    1634,    1651,    1650
    4663,    1447,    1448,    1465,    1464,    1634,    1635,    1652,    1651
    4664,    1448,    1449,    1466,    1465,    1635,    1636,    1653,    1652
    4665,    1449,    1450,    1467,    1466,    1636,    1637,    1654,    1653
    4666,    1450,    1451,    1468,    1467,    1637,    1638,    1655,    1654
    4667,    1451,    1452,    1469,    1468,    1638,    1639,    1656,    1655
    4668,    1452,    1453,    1470,    1469,    1639,    1640,    1657,    1656
    4669,    1453,    5846,    5844,    1470,    1640,    5166,    5165,    1657
    4670,     100,    1454,    6180,    5900,      89,    1641,    6175,    2626
    4671,    1454,    1455,    6179,    6180,    1641,    1642,    6176,    6175
    4672,    1455,    1456,    5893,    6179,    1642,    1643,    2642,    6176
    4673,    1456,    1457,    6272,    5893,    1643,    1644,    6277,    2642
    4674,    1457,    1458,    6271,    6272,    1644,    1645,    6278,    6277
    4675,    1458,    1459,    5901,    6271,    1645,    1646,    2641,    6278
    4676,    1459,    1460,    6430,    5901,    1646,    1647,    6435,    2641
    4677,    1460,    1461,    6429,    6430,    1647,    1648,    6436,    6435
    4678,    1461,    1462,    5891,    6429,    1648,    1649,    2640,    6436
    4679,    1462,    1463,    6588,    5891,    1649,    1650,    6593,    2640
    4680,    1463,    1464,    6587,    6588,    1650,    1651,    6594,    6593
    4681,    1464,    1465,    5887,    6587,    1651,    1652,    2639,    6594
    4682,    1465,    1466,    6762,    5887,    1652,    1653,    6757,    2639
    4683,    1466,    1467,    6761,    6762,    1653,    1654,    6758,    6757
    4684,    1467,    1468,    5883,    6761,    1654,    1655,    2638,    6758
    4685,    1468,    1469,    5828,    5883,    1655,    1656,    5357,    2638
    4686,    1469,    1470,    5830,    5828,    1656,    1657,    5358,    5357
    4687,    1470,    5844,    5840,    5830,    1657,    5165,    2600,    5358
    4688,      18,     247,    1471,      79,      19,     264,    1658,      68
    4689,     247,     248,    1472,    1471,     264,     265,    1659,    1658
    4690,     248,     249,    1473,    1472,     265,     266,    1660,    1659
    4691,     249,     250,    1474,    1473,     266,     267,    1661,    1660
    4692,     250,     251,    1475,    1474,     267,     268,    1662,    1661
    4693,     251,     252,    1476,    1475,     268,     269,    1663,    1662
    4694,     252,     253,    1477,    1476,     269,     270,    1664,    1663
    4695,     253,     254,    1478,    1477,     270,     271,    1665,    1664
    4696,     254,     255,    1479,    1478,     271,     272,    1666,    1665
    4697,     255,     256,    1480,    1479,     272,     273,    1667,    1666
    4698,     256,     257,    1481,    1480,     273,     274,    1668,    1667
    4699,     257,     258,    1482,    1481,     274,     275,    1669,    1668
    4700,     258,     259,    1483,    1482,     275,     276,    1670,    1669
    4701,     259,     260,    1484,    1483,     276,     277,    1671,    1670
    4702,     260,     261,    1485,    1484,     277,     278,    1672,    1671
    4703,     261,     262,    1486,    1485,     278,     279,    1673,    1672
    4704,     262,     263,    1487,    1486,     279,     280,    1674,    1673
    4705,     263,    2607,    5456,    1487,     280,    6044,    6041,    1674
    4706,      79,    1471,    1488,      80,      68,    1658,    1675,      69
    4707,    1471,    1472,    1489,    1488,    1658,    1659,    1676,    1675
    4708,    1472,    1473,    1490,    1489,    1659,    1660,    1677,    1676
    4709,    1473,    1474,    1491,    1490,    1660,    1661,    1678,    1677
    4710,    1474,    1475,    1492,    1491,    1661,    1662,    1679,    1678
    4711,    1475,    1476,    1493,    1492,    1662,    1663,    1680,    1679
    4712,    1476,    1477,    1494,    1493,    1663,    1664,    1681,    1680
    4713,    1477,    1478,    1495,    1494,    1664,    1665,    1682,    1681
    4714,    1478,    1479,    1496,    1495,    1665,    1666,    1683,    1682
    4715,    1479,    1480,    1497,    1496,    1666,    1667,    1684,    1683
    4716,    1480,    1481,    1498,    1497,    1667,    1668,    1685,    1684
    4717,    1481,    1482,    1499,    1498,    1668,    1669,    1686,    1685
    4718,    1482,    1483,    1500,    1499,    1669,    1670,    1687,    1686
    4719,    1483,    1484,    1501,    1500,    1670,    1671,    1688,    1687
    4720,    1484,    1485,    1502,    1501,    1671,    1672,    1689,    1688
    4721,    1485,    1486,    1503,    1502,    1672,    1673,    1690,    1689
    4722,    1486,    1487,    1504,    1503,    1673,    1674,    1691,    1690
    4723,    1487,    5456,    5455,    1504,    1674,    6041,    6011,    1691
    4724,      80,    1488,    1505,      81,      69,    1675,    1692,      70
    4725,    1488,    1489,    1506,    1505,    1675,    1676,    1693,    1692
    4726,    1489,    1490,    1507,    1506,    1676,    1677,    1694,    1693
    4727,    1490,    1491,    1508,    1507,    1677,    1678,    1695,    1694
    4728,    1491,    1492,    1509,    1508,    1678,    1679,    1696,    1695
    4729,    1492,    1493,    1510,    1509,    1679,    1680,    1697,    1696
    4730,    1493,    1494,    1511,    1510,    1680,    1681,    1698,    1697
    4731,    1494,    1495,    1512,    1511,    1681,    1682,    1699,    1698
    4732,    1495,    1496,    1513,    1512,    1682,    1683,    1700,    1699
    4733,    1496,    1497,    1514,    1513,    1683,    1684,    1701,    1700
    4734,    1497,    1498,    1515,    1514,    1684,    1685,    1702,    1701
    4735,    1498,    1499,    1516,    1515,    1685,    1686,    1703,    1702
    4736,    1499,    1500,    1517,    1516,    1686,    1687,    1704,    1703
    4737,    1500,    1501,    1518,    1517,    1687,    1688,    1705,    1704
    4738,    1501,    1502,    1519,    1518,    1688,    1689,    1706,    1705
    4739,    1502,    1503,    1520,    1519,    1689,    1690,    1707,    1706
    4740,    1503,    1504,    1521,    1520,    1690,    1691,    1708,    1707
    4741,    1504,    5455,    2612,    1521,    1691,    6011,    6010,    1708
    4742,      81,    1505,    1522,      82,      70,    1692,    1709,      71
    4743,    1505,    1506,    1523,    1522,    1692,    1693,    1710,    1709
    4744,    1506,    1507,    1524,    1523,    1693,    1694,    1711,    1710
    4745,    1507,    1508,    1525,    1524,    1694,    1695,    1712,    1711
    4746,    1508,    1509,    1526,    1525,    1695,    1696,    1713,    1712
    4747,    1509,    1510,    1527,    1526,    1696,    1697,    1714,    1713
    4748,    1510,    1511,    1528,    1527,    1697,    1698,    1715,    1714
    4749,    1511,    1512,    1529,    1528,    1698,    1699,    1716,    1715
    4750,    1512,    1513,    1530,    1529,    1699,    1700,    1717,    1716
    4751,    1513,    1514,    1531,    1530,    1700,    1701,    1718,    1717
    4752,    1514,    1515,    1532,    1531,    1701,    1702,    1719,    1718
    4753,    1515,    1516,    1533,    1532,    1702,    1703,    1720,    1719
    4754,    1516,    1517,    1534,    1533,    1703,    1704,    1721,    1720
    4755,    1517,    1518,    1535,    1534,    1704,    1705,    1722,    1721
    4756,    1518,    1519,    1536,    1535,    1705,    1706,    1723,    1722
    4757,    1519,    1520,    1537,    1536,    1706,    1707,    1724,    1723
    4758,    1520,    1521,    1538,    1537,    1707,    1708,    1725,    1724
    4759,    1521,    2612,    5744,    1538,    1708,    6010,    6003,    1725
    4760,      82,    1522,    1539,      83,      71,    1709,    1726,      72
    4761,    1522,    1523,    1540,    1539,    1709,    1710,    1727,    1726
    4762,    1523,    1524,    1541,    1540,    1710,    1711,    1728,    1727
    4763,    1524,    1525,    1542,    1541,    1711,    1712,    1729,    1728
    4764,    1525,    1526,    1543,    1542,    1712,    1713,    1730,    1729
    4765,    1526,    1527,    1544,    1543,    1713,    1714,    1731,    1730
    4766,    1527,    1528,    1545,    1544,    1714,    1715,    1732,    1731
    4767,    1528,    1529,    1546,    1545,    1715,    1716,    1733,    1732
    4768,    1529,    1530,    1547,    1546,    1716,    1717,    1734,    1733
    4769,    1530,    1531,    1548,    1547,    1717,    1718,    1735,    1734
    4770,    1531,    1532,    1549,    1548,    1718,    1719,    1736,    1735
    4771,    1532,    1533,    1550,    1549,    1719,    1720,    1737,    1736
    4772,    1533,    1534,    1551,    1550,    1720,    1721,    1738,    1737
    4773,    1534,    1535,    1552,    1551,    1721,    1722,    1739,    1738
    4774,    1535,    1536,    1553,    1552,    1722,    1723,    1740,    1739
    4775,    1536,    1537,    1554,    1553,    1723,    1724,    1741,    1740
    4776,    1537,    1538,    1555,    1554,    1724,    1725,    1742,    1741
    4777,    1538,    5744,    5743,    1555,    1725,    6003,    6001,    1742
    4778,      83,    1539,    1556,      84,      72,    1726,    1743,      73
    4779,    1539,    1540,    1557,    1556,    1726,    1727,    1744,    1743
    4780,    1540,    1541,    1558,    1557,    1727,    1728,    1745,    1744
    4781,    1541,    1542,    1559,    1558,    1728,    1729,    1746,    1745
    4782,    1542,    1543,    1560,    1559,    1729,    1730,    1747,    1746
    4783,    1543,    1544,    1561,    1560,    1730,    1731,    1748,    1747
    4784,    1544,    1545,    1562,    1561,    1731,    1732,    1749,    1748
    4785,    1545,    1546,    1563,    1562,    1732,    1733,    1750,    1749
    4786,    1546,    1547,    1564,    1563,    1733,    1734,    1751,    1750
    4787,    1547,    1548,    1565,    1564,    1734,    1735,    1752,    1751
    4788,    1548,    1549,    1566,    1565,    1735,    1736,    1753,    1752
    4789,    1549,    1550,    1567,    1566,    1736,    1737,    1754,    1753
    4790,    1550,    1551,    1568,    1567,    1737,    1738,    1755,    1754
    4791,    1551,    1552,    1569,    1568,    1738,    1739,    1756,    1755
    4792,    1552,    1553,    1570,    1569,    1739,    1740,    1757,    1756
    4793,    1553,    1554,    1571,    1570,    1740,    1741,    1758,    1757
    4794,    1554,    1555,    1572,    1571,    1741,    1742,    1759,    1758
    4795,    1555,    5743,    2613,    1572,    1742,    6001,    5996,    1759
    4796,      84,    1556,    1573,      85,      73,    1743,    1760,      74
    4797,    1556,    1557,    1574,    1573,    1743,    1744,    1761,    1760
    4798,    1557,    1558,    1575,    1574,    1744,    1745,    1762,    1761
    4799,    1558,    1559,    1576,    1575,    1745,    1746,    1763,    1762
    4800,    1559,    1560,    1577,    1576,    1746,    1747,    1764,    1763
    4801,    1560,    1561,    1578,    1577,    1747,    1748,    1765,    1764
    4802,    1561,    1562,    1579,    1578,    1748,    1749,    1766,    1765
    4803,    1562,    1563,    1580,    1579,    1749,    1750,    1767,    1766
    4804,    1563,    1564,    1581,    1580,    1750,    1751,    1768,    1767
    4805,    1564,    1565,    1582,    1581,    1751,    1752,    1769,    1768
    4806,    1565,    1566,    1583,    1582,    1752,    1753,    1770,    1769
    4807,    1566,    1567,    1584,    1583,    1753,    1754,    1771,    1770
    4808,    1567,    1568,    1585,    1584,    1754,    1755,    1772,    1771
    4809,    1568,    1569,    1586,    1585,    1755,    1756,    1773,    1772
    4810,    1569,    1570,    1587,    1586,    1756,    1757,    1774,    1773
    4811,    1570,    1571,    1588,    1587,    1757,    1758,    1775,    1774
    4812,    1571,    1572,    1589,    1588,    1758,    1759,    1776,    1775
    4813,    1572,    2613,    5630,    1589,    1759,    5996,    5993,    1776
    4814,      85,    1573,    1590,      86,      74,    1760,    1777,      75
    4815,    1573,    1574,    1591,    1590,    1760,    1761,    1778,    1777
    4816,    1574,    1575,    1592,    1591,    1761,    1762,    1779,    1778
    4817,    1575,    1576,    1593,    1592,    1762,    1763,    1780,    1779
    4818,    1576,    1577,    1594,    1593,    1763,    1764,    1781,    1780
    4819,    1577,    1578,    1595,    1594,    1764,    1765,    1782,    1781
    4820,    1578,    1579,    1596,    1595,    1765,    1766,    1783,    1782
    4821,    1579,    1580,    1597,    1596,    1766,    1767,    1784,    1783
    4822,    1580,    1581,    1598,    1597,    1767,    1768,    1785,    1784
    4823,    1581,    1582,    1599,    1598,    1768,    1769,    1786,    1785
    4824,    1582,    1583,    1600,    1599,    1769,    1770,    1787,    1786
    4825,    1583,    1584,    1601,    1600,    1770,    1771,    1788,    1787
    4826,    1584,    1585,    1602,    1601,    1771,    1772,    1789,    1788
    4827,    1585,    1586,    1603,    1602,    1772,    1773,    1790,    1789
    4828,    1586,    1587,    1604,    1603,    1773,    1774,    1791,    1790
    4829,    1587,    1588,    1605,    1604,    1774,    1775,    1792,    1791
    4830,    1588,    1589,    1606,    1605,    1775,    1776,    1793,    1792
    4831,    1589,    5630,    5629,    1606,    1776,    5993,    5987,    1793
    4832,      86,    1590,    1607,      87,      75,    1777,    1794,      76
    4833,    1590,    1591,    1608,    1607,    1777,    1778,    1795,    1794
    4834,    1591,    1592,    1609,    1608,    1778,    1779,    1796,    1795
    4835,    1592,    1593,    1610,    1609,    1779,    1780,    1797,    1796
    4836,    1593,    1594,    1611,    1610,    1780,    1781,    1798,    1797
    4837,    1594,    1595,    1612,    1611,    1781,    1782,    1799,    1798
    4838,    1595,    1596,    1613,    1612,    1782,    1783,    1800,    1799
    4839,    1596,    1597,    1614,    1613,    1783,    1784,    1801,    1800
    4840,    1597,    1598,    1615,    1614,    1784,    1785,    1802,    1801
    4841,    1598,    1599,    1616,    1615,    1785,    1786,    1803,    1802
    4842,    1599,    1600,    1617,    1616,    1786,    1787,    1804,    1803
    4843,    1600,    1601,    1618,    1617,    1787,    1788,    1805,    1804
    4844,    1601,    1602,    1619,    1618,    1788,    1789,    1806,    1805
    4845,    1602,    1603,    1620,    1619,    1789,    1790,    1807,    1806
    4846,    1603,    1604,    1621,    1620,    1790,    1791,    1808,    1807
    4847,    1604,    1605,    1622,    1621,    1791,    1792,    1809,    1808
    4848,    1605,    1606,    1623,    1622,    1792,    1793,    1810,    1809
    4849,    1606,    5629,    2614,    1623,    1793,    5987,    5986,    1810
    4850,      87,    1607,    1624,      88,      76,    1794,    1811,      77
    4851,    1607,    1608,    1625,    1624,    1794,    1795,    1812,    1811
    4852,    1608,    1609,    1626,    1625,    1795,    1796,    1813,    1812
    4853,    1609,    1610,    1627,    1626,    1796,    1797,    1814,    1813
    4854,    1610,    1611,    1628,    1627,    1797,    1798,    1815,    1814
    4855,    1611,    1612,    1629,    1628,    1798,    1799,    1816,    1815
    4856,    1612,    1613,    1630,    1629,    1799,    1800,    1817,    1816
    4857,    1613,    1614,    1631,    1630,    1800,    1801,    1818,    1817
    4858,    1614,    1615,    1632,    1631,    1801,    1802,    1819,    1818
    4859,    1615,    1616,    1633,    1632,    1802,    1803,    1820,    1819
    4860,    1616,    1617,    1634,    1633,    1803,    1804,    1821,    1820
    4861,    1617,    1618,    1635,    1634,    1804,    1805,    1822,    1821
    4862,    1618,    1619,    1636,    1635,    1805,    1806,    1823,    1822
    4863,    1619,    1620,    1637,    1636,    1806,    1807,    1824,    1823
    4864,    1620,    1621,    1638,    1637,    1807,    1808,    1825,    1824
    4865,    1621,    1622,    1639,    1638,    1808,    1809,    1826,    1825
    4866,    1622,    1623,    1640,    1639,    1809,    1810,    1827,    1826
    4867,    1623,    2614,    5166,    1640,    1810,    5986,    5979,    1827
    4868,      88,    1624,    1641,      89,      77,    1811,    1828,      78
    4869,    1624,    1625,    1642,    1641,    1811,    1812,    1829,    1828
    4870,    1625,    1626,    1643,    1642,    1812,    1813,    1830,    1829
    4871,    1626,    1627,    1644,    1643,    1813,    1814,    1831,    1830
    4872,    1627,    1628,    1645,    1644,    1814,    1815,    1832,    1831
    4873,    1628,    1629,    1646,    1645,    1815,    1816,    1833,    1832
    4874,    1629,    1630,    1647,    1646,    1816,    1817,    1834,    1833
    4875,    1630,    1631,    1648,    1647,    1817,    1818,    1835,    1834
    4876,    1631,    1632,    1649,    1648,    1818,    1819,    1836,    1835
    4877,    1632,    1633,    1650,    1649,    1819,    1820,    1837,    1836
    4878,    1633,    1634,    1651,    1650,    1820,    1821,    1838,    1837
    4879,    1634,    1635,    1652,    1651,    1821,    1822,    1839,    1838
    4880,    1635,    1636,    1653,    1652,    1822,    1823,    1840,    1839
    4881,    1636,    1637,    1654,    1653,    1823,    1824,    1841,    1840
    4882,    1637,    1638,    1655,    1654,    1824,    1825,    1842,    1841
    4883,    1638,    1639,    1656,    1655,    1825,    1826,    1843,    1842
    4884,    1639,    1640,    1657,    1656,    1826,    1827,    1844,    1843
    4885,    1640,    5166,    5165,    1657,    1827,    5979,    5977,    1844
    4886,      89,    1641,    6175,    2626,      78,    1828,    6172,    6033
    4887,    1641,    1642,    6176,    6175,    1828,    1829,    6171,    6172
    4888,    1642,    1643,    2642,    6176,    1829,    1830,    6028,    6171
    4889,    1643,    1644,    6277,    2642,    1830,    1831,    6346,    6028
    4890,    1644,    1645,    6278,    6277,    1831,    1832,    6345,    6346
    4891,    1645,    1646,    2641,    6278,    1832,    1833,    6036,    6345
    4892,    1646,    1647,    6435,    2641,    1833,    1834,    6504,    6036
    4893,    1647,    1648,    6436,    6435,    1834,    1835,    6503,    6504
    4894,    1648,    1649,    2640,    6436,    1835,    1836,    6026,    6503
    4895,    1649,    1650,    6593,    2640,    1836,    1837,    6662,    6026
    4896,    1650,    1651,    6594,    6593,    1837,    1838,    6661,    6662
    4897,    1651,    1652,    2639,    6594,    1838,    1839,    6022,    6661
    4898,    1652,    1653,    6757,    2639,    1839,    1840,    6746,    6022
    4899,    1653,    1654,    6758,    6757,    1840,    1841,    6745,    6746
    4900,    1654,    1655,    2638,    6758,    1841,    1842,    6018,    6745
    4901,    1655,    1656,    5357,    2638,    1842,    1843,    5961,    6018
    4902,    1656,    1657,    5358,    5357,    1843,    1844,    5963,    5961
    4903,    1657,    5165,    2600,    5358,    1844,    5977,    5973,    5963
    4904,      19,     264,    1658,      68,      20,     281,    1845,      57
    4905,     264,     265,    1659,    1658,     281,     282,    1846,    1845
    4906,     265,     266,    1660,    1659,     282,     283,    1847,    1846
    4907,     266,     267,    1661,    1660,     283,     284,    1848,    1847
    4908,     267,     268,    1662,    1661,     284,     285,    1849,    1848
    4909,     268,     269,    1663,    1662,     285,     286,    1850,    1849
    4910,     269,     270,    1664,    1663,     286,     287,    1851,    1850
    4911,     270,     271,    1665,    1664,     287,     288,    1852,    1851
    4912,     271,     272,    1666,    1665,     288,     289,    1853,    1852
    4913,     272,     273,    1667,    1666,     289,     290,    1854,    1853
    4914,     273,     274,    1668,    1667,     290,     291,    1855,    1854
    4915,     274,     275,    1669,    1668,     291,     292,    1856,    1855
    4916,     275,     276,    1670,    1669,     292,     293,    1857,    1856
    4917,     276,     277,    1671,    1670,     293,     294,    1858,    1857
    4918,     277,     278,    1672,    1671,     294,     295,    1859,    1858
    4919,     278,     279,    1673,    1672,     295,     296,    1860,    1859
    4920,     279,     280,    1674,    1673,     296,     297,    1861,    1860
    4921,     280,    6044,    6041,    1674,     297,    6043,    6042,    1861
    4922,      68,    1658,    1675,      69,      57,    1845,    1862,      58
    4923,    1658,    1659,    1676,    1675,    1845,    1846,    1863,    1862
    4924,    1659,    1660,    1677,    1676,    1846,    1847,    1864,    1863
    4925,    1660,    1661,    1678,    1677,    1847,    1848,    1865,    1864
    4926,    1661,    1662,    1679,    1678,    1848,    1849,    1866,    1865
    4927,    1662,    1663,    1680,    1679,    1849,    1850,    1867,    1866
    4928,    1663,    1664,    1681,    1680,    1850,    1851,    1868,    1867
    4929,    1664,    1665,    1682,    1681,    1851,    1852,    1869,    1868
    4930,    1665,    1666,    1683,    1682,    1852,    1853,    1870,    1869
    4931,    1666,    1667,    1684,    1683,    1853,    1854,    1871,    1870
    4932,    1667,    1668,    1685,    1684,    1854,    1855,    1872,    1871
    4933,    1668,    1669,    1686,    1685,    1855,    1856,    1873,    1872
    4934,    1669,    1670,    1687,    1686,    1856,    1857,    1874,    1873
    4935,    1670,    1671,    1688,    1687,    1857,    1858,    1875,    1874
    4936,    1671,    1672,    1689,    1688,    1858,    1859,    1876,    1875
    4937,    1672,    1673,    1690,    1689,    1859,    1860,    1877,    1876
    4938,    1673,    1674,    1691,    1690,    1860,    1861,    1878,    1877
    4939,    1674,    6041,    6011,    1691,    1861,    6042,    6012,    1878
    4940,      69,    1675,    1692,      70,      58,    1862,    1879,      59
    4941,    1675,    1676,    1693,    1692,    1862,    1863,    1880,    1879
    4942,    1676,    1677,    1694,    1693,    1863,    1864,    1881,    1880
    4943,    1677,    1678,    1695,    1694,    1864,    1865,    1882,    1881
    4944,    1678,    1679,    1696,    1695,    1865,    1866,    1883,    1882
    4945,    1679,    1680,    1697,    1696,    1866,    1867,    1884,    1883
    4946,    1680,    1681,    1698,    1697,    1867,    1868,    1885,    1884
    4947,    1681,    1682,    1699,    1698,    1868,    1869,    1886,    1885
    4948,    1682,    1683,    1700,    1699,    1869,    1870,    1887,    1886
    4949,    1683,    1684,    1701,    1700,    1870,    1871,    1888,    1887
    4950,    1684,    1685,    1702,    1701,    1871,    1872,    1889,    1888
    4951,    1685,    1686,    1703,    1702,    1872,    1873,    1890,    1889
    4952,    1686,    1687,    1704,    1703,    1873,    1874,    1891,    1890
    4953,    1687,    1688,    1705,    1704,    1874,    1875,    1892,    1891
    4954,    1688,    1689,    1706,    1705,    1875,    1876,    1893,    1892
    4955,    1689,    1690,    1707,    1706,    1876,    1877,    1894,    1893
    4956,    1690,    1691,    1708,    1707,    1877,    1878,    1895,    1894
    4957,    1691,    6011,    6010,    1708,    1878,    6012,    6009,    1895
    4958,      70,    1692,    1709,      71,      59,    1879,    1896,      60
    4959,    1692,    1693,    1710,    1709,    1879,    1880,    1897,    1896
    4960,    1693,    1694,    1711,    1710,    1880,    1881,    1898,    1897
    4961,    1694,    1695,    1712,    1711,    1881,    1882,    1899,    1898
    4962,    1695,    1696,    1713,    1712,    1882,    1883,    1900,    1899
    4963,    1696,    1697,    1714,    1713,    1883,    1884,    1901,    1900
    4964,    1697,    1698,    1715,    1714,    1884,    1885,    1902,    1901
    4965,    1698,    1699,    1716,    1715,    1885,    1886,    1903,    1902
    4966,    1699,    1700,    1717,    1716,    1886,    1887,    1904,    1903
    4967,    1700,    1701,    1718,    1717,    1887,    1888,    1905,    1904
    4968,    1701,    1702,    1719,    1718,    1888,    1889,    1906,    1905
    4969,    1702,    1703,    1720,    1719,    1889,    1890,    1907,    1906
    4970,    1703,    1704,    1721,    1720,    1890,    1891,    1908,    1907
    4971,    1704,    1705,    1722,    1721,    1891,    1892,    1909,    1908
    4972,    1705,    1706,    1723,    1722,    1892,    1893,    1910,    1909
    4973,    1706,    1707,    1724,    1723,    1893,    1894,    1911,    1910
    4974,    1707,    1708,    1725,    1724,    1894,    1895,    1912,    1911
    4975,    1708,    6010,    6003,    1725,    1895,    6009,    6004,    1912
    4976,      71,    1709,    1726,      72,      60,    1896,    1913,      61
    4977,    1709,    1710,    1727,    1726,    1896,    1897,    1914,    1913
    4978,    1710,    1711,    1728,    1727,    1897,    1898,    1915,    1914
    4979,    1711,    1712,    1729,    1728,    1898,    1899,    1916,    1915
    4980,    1712,    1713,    1730,    1729,    1899,    1900,    1917,    1916
    4981,    1713,    1714,    1731,    1730,    1900,    1901,    1918,    1917
    4982,    1714,    1715,    1732,    1731,    1901,    1902,    1919,    1918
    4983,    1715,    1716,    1733,    1732,    1902,    1903,    1920,    1919
    4984,    1716,    1717,    1734,    1733,    1903,    1904,    1921,    1920
    4985,    1717,    1718,    1735,    1734,    1904,    1905,    1922,    1921
    4986,    1718,    1719,    1736,    1735,    1905,    1906,    1923,    1922
    4987,    1719,    1720,    1737,    1736,    1906,    1907,    1924,    1923
    4988,    1720,    1721,    1738,    1737,    1907,    1908,    1925,    1924
    4989,    1721,    1722,    1739,    1738,    1908,    1909,    1926,    1925
    4990,    1722,    1723,    1740,    1739,    1909,    1910,    1927,    1926
    4991,    1723,    1724,    1741,    1740,    1910,    1911,    1928,    1927
    4992,    1724,    1725,    1742,    1741,    1911,    1912,    1929,    1928
    4993,    1725,    6003,    6001,    1742,    1912,    6004,    6002,    1929
    4994,      72,    1726,    1743,      73,      61,    1913,    1930,      62
    4995,    1726,    1727,    1744,    1743,    1913,    1914,    1931,    1930
    4996,    1727,    1728,    1745,    1744,    1914,    1915,    1932,    1931
    4997,    1728,    1729,    1746,    1745,    1915,    1916,    1933,    1932
    4998,    1729,    1730,    1747,    1746,    1916,    1917,    1934,    1933
    4999,    1730,    1731,    1748,    1747,    1917,    1918,    1935,    1934
    5000,    1731,    1732,    1749,    1748,    1918,    1919,    1936,    1935
    5001,    1732,    1733,    1750,    1749,    1919,    1920,    1937,    1936
    5002,    1733,    1734,    1751,    1750,    1920,    1921,    1938,    1937
    5003,    1734,    1735,    1752,    1751,    1921,    1922,    1939,    1938
    5004,    1735,    1736,    1753,    1752,    1922,    1923,    1940,    1939
    5005,    1736,    1737,    1754,    1753,    1923,    1924,    1941,    1940
    5006,    1737,    1738,    1755,    1754,    1924,    1925,    1942,    1941
    5007,    1738,    1739,    1756,    1755,    1925,    1926,    1943,    1942
    5008,    1739,    1740,    1757,    1756,    1926,    1927,    1944,    1943
    5009,    1740,    1741,    1758,    1757,    1927,    1928,    1945,    1944
    5010,    1741,    1742,    1759,    1758,    1928,    1929,    1946,    1945
    5011,    1742,    6001,    5996,    1759,    1929,    6002,    5995,    1946
    5012,      73,    1743,    1760,      74,      62,    1930,    1947,      63
    5013,    1743,    1744,    1761,    1760,    1930,    1931,    1948,    1947
    5014,    1744,    1745,    1762,    1761,    1931,    1932,    1949,    1948
    5015,    1745,    1746,    1763,    1762,    1932,    1933,    1950,    1949
    5016,    1746,    1747,    1764,    1763,    1933,    1934,    1951,    1950
    5017,    1747,    1748,    1765,    1764,    1934,    1935,    1952,    1951
    5018,    1748,    1749,    1766,    1765,    1935,    1936,    1953,    1952
    5019,    1749,    1750,    1767,    1766,    1936,    1937,    1954,    1953
    5020,    1750,    1751,    1768,    1767,    1937,    1938,    1955,    1954
    5021,    1751,    1752,    1769,    1768,    1938,    1939,    1956,    1955
    5022,    1752,    1753,    1770,    1769,    1939,    1940,    1957,    1956
    5023,    1753,    1754,    1771,    1770,    1940,    1941,    1958,    1957
    5024,    1754,    1755,    1772,    1771,    1941,    1942,    1959,    1958
    5025,    1755,    1756,    1773,    1772,    1942,    1943,    1960,    1959
    5026,    1756,    1757,    1774,    1773,    1943,    1944,    1961,    1960
    5027,    1757,    1758,    1775,    1774,    1944,    1945,    1962,    1961
    5028,    1758,    1759,    1776,    1775,    1945,    1946,    1963,    1962
    5029,    1759,    5996,    5993,    1776,    1946,    5995,    5994,    1963
    5030,      74,    1760,    1777,      75,      63,    1947,    1964,      64
    5031,    1760,    1761,    1778,    1777,    1947,    1948,    1965,    1964
    5032,    1761,    1762,    1779,    1778,    1948,    1949,    1966,    1965
    5033,    1762,    1763,    1780,    1779,    1949,    1950,    1967,    1966
    5034,    1763,    1764,    1781,    1780,    1950,    1951,    1968,    1967
    5035,    1764,    1765,    1782,    1781,    1951,    1952,    1969,    1968
    5036,    1765,    1766,    1783,    1782,    1952,    1953,    1970,    1969
    5037,    1766,    1767,    1784,    1783,    1953,    1954,    1971,    1970
    5038,    1767,    1768,    1785,    1784,    1954,    1955,    1972,    1971
    5039,    1768,    1769,    1786,    1785,    1955,    1956,    1973,    1972
    5040,    1769,    1770,    1787,    1786,    1956,    1957,    1974,    1973
    5041,    1770,    1771,    1788,    1787,    1957,    1958,    1975,    1974
    5042,    1771,    1772,    1789,    1788,    1958,    1959,    1976,    1975
    5043,    1772,    1773,    1790,    1789,    1959,    1960,    1977,    1976
    5044,    1773,    1774,    1791,    1790,    1960,    1961,    1978,    1977
    5045,    1774,    1775,    1792,    1791,    1961,    1962,    1979,    1978
    5046,    1775,    1776,    1793,    1792,    1962,    1963,    1980,    1979
    5047,    1776,    5993,    5987,    1793,    1963,    5994,    5988,    1980
    5048,      75,    1777,    1794,      76,      64,    1964,    1981,      65
    5049,    1777,    1778,    1795,    1794,    1964,    1965,    1982,    1981
    5050,    1778,    1779,    1796,    1795,    1965,    1966,    1983,    1982
    5051,    1779,    1780,    1797,    1796,    1966,    1967,    1984,    1983
    5052,    1780,    1781,    1798,    1797,    1967,    1968,    1985,    1984
    5053,    1781,    1782,    1799,    1798,    1968,    1969,    1986,    1985
    5054,    1782,    1783,    1800,    1799,    1969,    1970,    1987,    1986
    5055,    1783,    1784,    1801,    1800,    1970,    1971,    1988,    1987
    5056,    1784,    1785,    1802,    1801,    1971,    1972,    1989,    1988
    5057,    1785,    1786,    1803,    1802,    1972,    1973,    1990,    1989
    5058,    1786,    1787,    1804,    1803,    1973,    1974,    1991,    1990
    5059,    1787,    1788,    1805,    1804,    1974,    1975,    1992,    1991
    5060,    1788,    1789,    1806,    1805,    1975,    1976,    1993,    1992
    5061,    1789,    1790,    1807,    1806,    1976,    1977,    1994,    1993
    5062,    1790,    1791,    1808,    1807,    1977,    1978,    1995,    1994
    5063,    1791,    1792,    1809,    1808,    1978,    1979,    1996,    1995
    5064,    1792,    1793,    1810,    1809,    1979,    1980,    1997,    1996
    5065,    1793,    5987,    5986,    1810,    1980,    5988,    5985,    1997
    5066,      76,    1794,    1811,      77,      65,    1981,    1998,      66
    5067,    1794,    1795,    1812,    1811,    1981,    1982,    1999,    1998
    5068,    1795,    1796,    1813,    1812,    1982,    1983,    2000,    1999
    5069,    1796,    1797,    1814,    1813,    1983,    1984,    2001,    2000
    5070,    1797,    1798,    1815,    1814,    1984,    1985,    2002,    2001
    5071,    1798,    1799,    1816,    1815,    1985,    1986,    2003,    2002
    5072,    1799,    1800,    1817,    1816,    1986,    1987,    2004,    2003
    5073,    1800,    1801,    1818,    1817,    1987,    1988,    2005,    2004
    5074,    1801,    1802,    1819,    1818,    1988,    1989,    2006,    2005
    5075,    1802,    1803,    1820,    1819,    1989,    1990,    2007,    2006
    5076,    1803,    1804,    1821,    1820,    1990,    1991,    2008,    2007
    5077,    1804,    1805,    1822,    1821,    1991,    1992,    2009,    2008
    5078,    1805,    1806,    1823,    1822,    1992,    1993,    2010,    2009
    5079,    1806,    1807,    1824,    1823,    1993,    1994,    2011,    2010
    5080,    1807,    1808,    1825,    1824,    1994,    1995,    2012,    2011
    5081,    1808,    1809,    1826,    1825,    1995,    1996,    2013,    2012
    5082,    1809,    1810,    1827,    1826,    1996,    1997,    2014,    2013
    5083,    1810,    5986,    5979,    1827,    1997,    5985,    5980,    2014
    5084,      77,    1811,    1828,      78,      66,    1998,    2015,      67
    5085,    1811,    1812,    1829,    1828,    1998,    1999,    2016,    2015
    5086,    1812,    1813,    1830,    1829,    1999,    2000,    2017,    2016
    5087,    1813,    1814,    1831,    1830,    2000,    2001,    2018,    2017
    5088,    1814,    1815,    1832,    1831,    2001,    2002,    2019,    2018
    5089,    1815,    1816,    1833,    1832,    2002,    2003,    2020,    2019
    5090,    1816,    1817,    1834,    1833,    2003,    2004,    2021,    2020
    5091,    1817,    1818,    1835,    1834,    2004,    2005,    2022,    2021
    5092,    1818,    1819,    1836,    1835,    2005,    2006,    2023,    2022
    5093,    1819,    1820,    1837,    1836,    2006,    2007,    2024,    2023
    5094,    1820,    1821,    1838,    1837,    2007,    2008,    2025,    2024
    5095,    1821,    1822,    1839,    1838,    2008,    2009,    2026,    2025
    5096,    1822,    1823,    1840,    1839,    2009,    2010,    2027,    2026
    5097,    1823,    1824,    1841,    1840,    2010,    2011,    2028,    2027
    5098,    1824,    1825,    1842,    1841,    2011,    2012,    2029,    2028
    5099,    1825,    1826,    1843,    1842,    2012,    2013,    2030,    2029
    5100,    1826,    1827,    1844,    1843,    2013,    2014,    2031,    2030
    5101,    1827,    5979,    5977,    1844,    2014,    5980,    5978,    2031
    5102,      78,    1828,    6172,    6033,      67,    2015,    6168,    6034
    5103,    1828,    1829,    6171,    6172,    2015,    2016,    6167,    6168
    5104,    1829,    1830,    6028,    6171,    2016,    2017,    6027,    6167
    5105,    1830,    1831,    6346,    6028,    2017,    2018,    6350,    6027
    5106,    1831,    1832,    6345,    6346,    2018,    2019,    6349,    6350
    5107,    1832,    1833,    6036,    6345,    2019,    2020,    6035,    6349
    5108,    1833,    1834,    6504,    6036,    2020,    2021,    6508,    6035
    5109,    1834,    1835,    6503,    6504,    2021,    2022,    6507,    6508
    5110,    1835,    1836,    6026,    6503,    2022,    2023,    6025,    6507
    5111,    1836,    1837,    6662,    6026,    2023,    2024,    6666,    6025
    5112,    1837,    1838,    6661,    6662,    2024,    2025,    6665,    6666
    5113,    1838,    1839,    6022,    6661,    2025,    2026,    6021,    6665
    5114,    1839,    1840,    6746,    6022,    2026,    2027,    6752,    6021
    5115,    1840,    1841,    6745,    6746,    2027,    2028,    6751,    6752
    5116,    1841,    1842,    6018,    6745,    2028,    2029,    6017,    6751
    5117,    1842,    1843,    5961,    6018,    2029,    2030,    5962,    6017
    5118,    1843,    1844,    5963,    5961,    2030,    2031,    5964,    5962
    5119,    1844,    5977,    5973,    5963,    2031,    5978,    5974,    5964
    5120,      20,     281,    1845,      57,      21,     298,    2032,      46
    5121,     281,     282,    1846,    1845,     298,     299,    2033,    2032
    5122,     282,     283,    1847,    1846,     299,     300,    2034,    2033
    5123,     283,     284,    1848,    1847,     300,     301,    2035,    2034
    5124,     284,     285,    1849,    1848,     301,     302,    2036,    2035
    5125,     285,     286,    1850,    1849,     302,     303,    2037,    2036
    5126,     286,     287,    1851,    1850,     303,     304,    2038,    2037
    5127,     287,     288,    1852,    1851,     304,     305,    2039,    2038
    5128,     288,     289,    1853,    1852,     305,     306,    2040,    2039
    5129,     289,     290,    1854,    1853,     306,     307,    2041,    2040
    5130,     290,     291,    1855,    1854,     307,     308,    2042,    2041
    5131,     291,     292,    1856,    1855,     308,     309,    2043,    2042
    5132,     292,     293,    1857,    1856,     309,     310,    2044,    2043
    5133,     293,     294,    1858,    1857,     310,     311,    2045,    2044
    5134,     294,     295,    1859,    1858,     311,     312,    2046,    2045
    5135,     295,     296,    1860,    1859,     312,     313,    2047,    2046
    5136,     296,     297,    1861,    1860,     313,     314,    2048,    2047
    5137,     297,    6043,    6042,    1861,     314,    2606,    5460,    2048
    5138,      57,    1845,    1862,      58,      46,    2032,    2049,      47
    5139,    1845,    1846,    1863,    1862,    2032,    2033,    2050,    2049
    5140,    1846,    1847,    1864,    1863,    2033,    2034,    2051,    2050
    5141,    1847,    1848,    1865,    1864,    2034,    2035,    2052,    2051
    5142,    1848,    1849,    1866,    1865,    2035,    2036,    2053,    2052
    5143,    1849,    1850,    1867,    1866,    2036,    2037,    2054,    2053
    5144,    1850,    1851,    1868,    1867,    2037,    2038,    2055,    2054
    5145,    1851,    1852,    1869,    1868,    2038,    2039,    2056,    2055
    5146,    1852,    1853,    1870,    1869,    2039,    2040,    2057,    2056
    5147,    1853,    1854,    1871,    1870,    2040,    2041,    2058,    2057
    5148,    1854,    1855,    1872,    1871,    2041,    2042,    2059,    2058
    5149,    1855,    1856,    1873,    1872,    2042,    2043,    2060,    2059
    5150,    1856,    1857,    1874,    1873,    2043,    2044,    2061,    2060
    5151,    1857,    1858,    1875,    1874,    2044,    2045,    2062,    2061
    5152,    1858,    1859,    1876,    1875,    2045,    2046,    2063,    2062
    5153,    1859,    1860,    1877,    1876,    2046,    2047,    2064,    2063
    5154,    1860,    1861,    1878,    1877,    2047,    2048,    2065,    2064
    5155,    1861,    6042,    6012,    1878,    2048,    5460,    5459,    2065
    5156,      58,    1862,    1879,      59,      47,    2049,    2066,      48
    5157,    1862,    1863,    1880,    1879,    2049,    2050,    2067,    2066
    5158,    1863,    1864,    1881,    1880,    2050,    2051,    2068,    2067
    5159,    1864,    1865,    1882,    1881,    2051,    2052,    2069,    2068
    5160,    1865,    1866,    1883,    1882,    2052,    2053,    2070,    2069
    5161,    1866,    1867,    1884,    1883,    2053,    2054,    2071,    2070
    5162,    1867,    1868,    1885,    1884,    2054,    2055,    2072,    2071
    5163,    1868,    1869,    1886,    1885,    2055,    2056,    2073,    2072
    5164,    1869,    1870,    1887,    1886,    2056,    2057,    2074,    2073
    5165,    1870,    1871,    1888,    1887,    2057,    2058,    2075,    2074
    5166,    1871,    1872,    1889,    1888,    2058,    2059,    2076,    2075
    5167,    1872,    1873,    1890,    1889,    2059,    2060,    2077,    2076
    5168,    1873,    1874,    1891,    1890,    2060,    2061,    2078,    2077
    5169,    1874,    1875,    1892,    1891,    2061,    2062,    2079,    2078
    5170,    1875,    1876,    1893,    1892,    2062,    2063,    2080,    2079
    5171,    1876,    1877,    1894,    1893,    2063,    2064,    2081,    2080
    5172,    1877,    1878,    1895,    1894,    2064,    2065,    2082,    2081
    5173,    1878,    6012,    6009,    1895,    2065,    5459,    2609,    2082
    5174,      59,    1879,    1896,      60,      48,    2066,    2083,      49
    5175,    1879,    1880,    1897,    1896,    2066,    2067,    2084,    2083
    5176,    1880,    1881,    1898,    1897,    2067,    2068,    2085,    2084
    5177,    1881,    1882,    1899,    1898,    2068,    2069,    2086,    2085
    5178,    1882,    1883,    1900,    1899,    2069,    2070,    2087,    2086
    5179,    1883,    1884,    1901,    1900,    2070,    2071,    2088,    2087
    5180,    1884,    1885,    1902,    1901,    2071,    2072,    2089,    2088
    5181,    1885,    1886,    1903,    1902,    2072,    2073,    2090,    2089
    5182,    1886,    1887,    1904,    1903,    2073,    2074,    2091,    2090
    5183,    1887,    1888,    1905,    1904,    2074,    2075,    2092,    2091
    5184,    1888,    1889,    1906,    1905,    2075,    2076,    2093,    2092
    5185,    1889,    1890,    1907,    1906,    2076,    2077,    2094,    2093
    5186,    1890,    1891,    1908,    1907,    2077,    2078,    2095,    2094
    5187,    1891,    1892,    1909,    1908,    2078,    2079,    2096,    2095
    5188,    1892,    1893,    1910,    1909,    2079,    2080,    2097,    2096
    5189,    1893,    1894,    1911,    1910,    2080,    2081,    2098,    2097
    5190,    1894,    1895,    1912,    1911,    2081,    2082,    2099,    2098
    5191,    1895,    6009,    6004,    1912,    2082,    2609,    5786,    2099
    5192,      60,    1896,    1913,      61,      49,    2083,    2100,      50
    5193,    1896,    1897,    1914,    1913,    2083,    2084,    2101,    2100
    5194,    1897,    1898,    1915,    1914,    2084,    2085,    2102,    2101
    5195,    1898,    1899,    1916,    1915,    2085,    2086,    2103,    2102
    5196,    1899,    1900,    1917,    1916,    2086,    2087,    2104,    2103
    5197,    1900,    1901,    1918,    1917,    2087,    2088,    2105,    2104
    5198,    1901,    1902,    1919,    1918,    2088,    2089,    2106,    2105
    5199,    1902,    1903,    1920,    1919,    2089,    2090,    2107,    2106
    5200,    1903,    1904,    1921,    1920,    2090,    2091,    2108,    2107
    5201,    1904,    1905,    1922,    1921,    2091,    2092,    2109,    2108
    5202,    1905,    1906,    1923,    1922,    2092,    2093,    2110,    2109
    5203,    1906,    1907,    1924,    1923,    2093,    2094,    2111,    2110
    5204,    1907,    1908,    1925,    1924,    2094,    2095,    2112,    2111
    5205,    1908,    1909,    1926,    1925,    2095,    2096,    2113,    2112
    5206,    1909,    1910,    1927,    1926,    2096,    2097,    2114,    2113
    5207,    1910,    1911,    1928,    1927,    2097,    2098,    2115,    2114
    5208,    1911,    1912,    1929,    1928,    2098,    2099,    2116,    2115
    5209,    1912,    6004,    6002,    1929,    2099,    5786,    5785,    2116
    5210,      61,    1913,    1930,      62,      50,    2100,    2117,      51
    5211,    1913,    1914,    1931,    1930,    2100,    2101,    2118,    2117
    5212,    1914,    1915,    1932,    1931,    2101,    2102,    2119,    2118
    5213,    1915,    1916,    1933,    1932,    2102,    2103,    2120,    2119
    5214,    1916,    1917,    1934,    1933,    2103,    2104,    2121,    2120
    5215,    1917,    1918,    1935,    1934,    2104,    2105,    2122,    2121
    5216,    1918,    1919,    1936,    1935,    2105,    2106,    2123,    2122
    5217,    1919,    1920,    1937,    1936,    2106,    2107,    2124,    2123
    5218,    1920,    1921,    1938,    1937,    2107,    2108,    2125,    2124
    5219,    1921,    1922,    1939,    1938,    2108,    2109,    2126,    2125
    5220,    1922,    1923,    1940,    1939,    2109,    2110,    2127,    2126
    5221,    1923,    1924,    1941,    1940,    2110,    2111,    2128,    2127
    5222,    1924,    1925,    1942,    1941,    2111,    2112,    2129,    2128
    5223,    1925,    1926,    1943,    1942,    2112,    2113,    2130,    2129
    5224,    1926,    1927,    1944,    1943,    2113,    2114,    2131,    2130
    5225,    1927,    1928,    1945,    1944,    2114,    2115,    2132,    2131
    5226,    1928,    1929,    1946,    1945,    2115,    2116,    2133,    2132
    5227,    1929,    6002,    5995,    1946,    2116,    5785,    2610,    2133
    5228,      62,    1930,    1947,      63,      51,    2117,    2134,      52
    5229,    1930,    1931,    1948,    1947,    2117,    2118,    2135,    2134
    5230,    1931,    1932,    1949,    1948,    2118,    2119,    2136,    2135
    5231,    1932,    1933,    1950,    1949,    2119,    2120,    2137,    2136
    5232,    1933,    1934,    1951,    1950,    2120,    2121,    2138,    2137
    5233,    1934,    1935,    1952,    1951,    2121,    2122,    2139,    2138
    5234,    1935,    1936,    1953,    1952,    2122,    2123,    2140,    2139
    5235,    1936,    1937,    1954,    1953,    2123,    2124,    2141,    2140
    5236,    1937,    1938,    1955,    1954,    2124,    2125,    2142,    2141
    5237,    1938,    1939,    1956,    1955,    2125,    2126,    2143,    2142
    5238,    1939,    1940,    1957,    1956,    2126,    2127,    2144,    2143
    5239,    1940,    1941,    1958,    1957,    2127,    2128,    2145,    2144
    5240,    1941,    1942,    1959,    1958,    2128,    2129,    2146,    2145
    5241,    1942,    1943,    1960,    1959,    2129,    2130,    2147,    2146
    5242,    1943,    1944,    1961,    1960,    2130,    2131,    2148,    2147
    5243,    1944,    1945,    1962,    1961,    2131,    2132,    2149,    2148
    5244,    1945,    1946,    1963,    1962,    2132,    2133,    2150,    2149
    5245,    1946,    5995,    5994,    1963,    2133,    2610,    5676,    2150
    5246,      63,    1947,    1964,      64,      52,    2134,    2151,      53
    5247,    1947,    1948,    1965,    1964,    2134,    2135,    2152,    2151
    5248,    1948,    1949,    1966,    1965,    2135,    2136,    2153,    2152
    5249,    1949,    1950,    1967,    1966,    2136,    2137,    2154,    2153
    5250,    1950,    1951,    1968,    1967,    2137,    2138,    2155,    2154
    5251,    1951,    1952,    1969,    1968,    2138,    2139,    2156,    2155
    5252,    1952,    1953,    1970,    1969,    2139,    2140,    2157,    2156
    5253,    1953,    1954,    1971,    1970,    2140,    2141,    2158,    2157
    5254,    1954,    1955,    1972,    1971,    2141,    2142,    2159,    2158
    5255,    1955,    1956,    1973,    1972,    2142,    2143,    2160,    2159
    5256,    1956,    1957,    1974,    1973,    2143,    2144,    2161,    2160
    5257,    1957,    1958,    1975,    1974,    2144,    2145,    2162,    2161
    5258,    1958,    1959,    1976,    1975,    2145,    2146,    2163,    2162
    5259,    1959,    1960,    1977,    1976,    2146,    2147,    2164,    2163
    5260,    1960,    1961,    1978,    1977,    2147,    2148,    2165,    2164
    5261,    1961,    1962,    1979,    1978,    2148,    2149,    2166,    2165
    5262,    1962,    1963,    1980,    1979,    2149,    2150,    2167,    2166
    5263,    1963,    5994,    5988,    1980,    2150,    5676,    5675,    2167
    5264,      64,    1964,    1981,      65,      53,    2151,    2168,      54
    5265,    1964,    1965,    1982,    1981,    2151,    2152,    2169,    2168
    5266,    1965,    1966,    1983,    1982,    2152,    2153,    2170,    2169
    5267,    1966,    1967,    1984,    1983,    2153,    2154,    2171,    2170
    5268,    1967,    1968,    1985,    1984,    2154,    2155,    2172,    2171
    5269,    1968,    1969,    1986,    1985,    2155,    2156,    2173,    2172
    5270,    1969,    1970,    1987,    1986,    2156,    2157,    2174,    2173
    5271,    1970,    1971,    1988,    1987,    2157,    2158,    2175,    2174
    5272,    1971,    1972,    1989,    1988,    2158,    2159,    2176,    2175
    5273,    1972,    1973,    1990,    1989,    2159,    2160,    2177,    2176
    5274,    1973,    1974,    1991,    1990,    2160,    2161,    2178,    2177
    5275,    1974,    1975,    1992,    1991,    2161,    2162,    2179,    2178
    5276,    1975,    1976,    1993,    1992,    2162,    2163,    2180,    2179
    5277,    1976,    1977,    1994,    1993,    2163,    2164,    2181,    2180
    5278,    1977,    1978,    1995,    1994,    2164,    2165,    2182,    2181
    5279,    1978,    1979,    1996,    1995,    2165,    2166,    2183,    2182
    5280,    1979,    1980,    1997,    1996,    2166,    2167,    2184,    2183
    5281,    1980,    5988,    5985,    1997,    2167,    5675,    2611,    2184
    5282,      65,    1981,    1998,      66,      54,    2168,    2185,      55
    5283,    1981,    1982,    1999,    1998,    2168,    2169,    2186,    2185
    5284,    1982,    1983,    2000,    1999,    2169,    2170,    2187,    2186
    5285,    1983,    1984,    2001,    2000,    2170,    2171,    2188,    2187
    5286,    1984,    1985,    2002,    2001,    2171,    2172,    2189,    2188
    5287,    1985,    1986,    2003,    2002,    2172,    2173,    2190,    2189
    5288,    1986,    1987,    2004,    2003,    2173,    2174,    2191,    2190
    5289,    1987,    1988,    2005,    2004,    2174,    2175,    2192,    2191
    5290,    1988,    1989,    2006,    2005,    2175,    2176,    2193,    2192
    5291,    1989,    1990,    2007,    2006,    2176,    2177,    2194,    2193
    5292,    1990,    1991,    2008,    2007,    2177,    2178,    2195,    2194
    5293,    1991,    1992,    2009,    2008,    2178,    2179,    2196,    2195
    5294,    1992,    1993,    2010,    2009,    2179,    2180,    2197,    2196
    5295,    1993,    1994,    2011,    2010,    2180,    2181,    2198,    2197
    5296,    1994,    1995,    2012,    2011,    2181,    2182,    2199,    2198
    5297,    1995,    1996,    2013,    2012,    2182,    2183,    2200,    2199
    5298,    1996,    1997,    2014,    2013,    2183,    2184,    2201,    2200
    5299,    1997,    5985,    5980,    2014,    2184,    2611,    5164,    2201
    5300,      66,    1998,    2015,      67,      55,    2185,    2202,      56
    5301,    1998,    1999,    2016,    2015,    2185,    2186,    2203,    2202
    5302,    1999,    2000,    2017,    2016,    2186,    2187,    2204,    2203
    5303,    2000,    2001,    2018,    2017,    2187,    2188,    2205,    2204
    5304,    2001,    2002,    2019,    2018,    2188,    2189,    2206,    2205
    5305,    2002,    2003,    2020,    2019,    2189,    2190,    2207,    2206
    5306,    2003,    2004,    2021,    2020,    2190,    2191,    2208,    2207
    5307,    2004,    2005,    2022,    2021,    2191,    2192,    2209,    2208
    5308,    2005,    2006,    2023,    2022,    2192,    2193,    2210,    2209
    5309,    2006,    2007,    2024,    2023,    2193,    2194,    2211,    2210
    5310,    2007,    2008,    2025,    2024,    2194,    2195,    2212,    2211
    5311,    2008,    2009,    2026,    2025,    2195,    2196,    2213,    2212
    5312,    2009,    2010,    2027,    2026,    2196,    2197,    2214,    2213
    5313,    2010,    2011,    2028,    2027,    2197,    2198,    2215,    2214
    5314,    2011,    2012,    2029,    2028,    2198,    2199,    2216,    2215
    5315,    2012,    2013,    2030,    2029,    2199,    2200,    2217,    2216
    5316,    2013,    2014,    2031,    2030,    2200,    2201,    2218,    2217
    5317,    2014,    5980,    5978,    2031,    2201,    5164,    5163,    2218
    5318,      67,    2015,    6168,    6034,      56,    2202,    6163,    2627
    5319,    2015,    2016,    6167,    6168,    2202,    2203,    6164,    6163
    5320,    2016,    2017,    6027,    6167,    2203,    2204,    2637,    6164
    5321,    2017,    2018,    6350,    6027,    2204,    2205,    6353,    2637
    5322,    2018,    2019,    6349,    6350,    2205,    2206,    6354,    6353
    5323,    2019,    2020,    6035,    6349,    2206,    2207,    2636,    6354
    5324,    2020,    2021,    6508,    6035,    2207,    2208,    6511,    2636
    5325,    2021,    2022,    6507,    6508,    2208,    2209,    6512,    6511
    5326,    2022,    2023,    6025,    6507,    2209,    2210,    2635,    6512
    5327,    2023,    2024,    6666,    6025,    2210,    2211,    6669,    2635
    5328,    2024,    2025,    6665,    6666,    2211,    2212,    6670,    6669
    5329,    2025,    2026,    6021,    6665,    2212,    2213,    2634,    6670
    5330,    2026,    2027,    6752,    6021,    2213,    2214,    6755,    2634
    5331,    2027,    2028,    6751,    6752,    2214,    2215,    6756,    6755
    5332,    2028,    2029,    6017,    6751,    2215,    2216,    2633,    6756
    5333,    2029,    2030,    5962,    6017,    2216,    2217,    5353,    2633
    5334,    2030,    2031,    5964,    5962,    2217,    2218,    5354,    5353
    5335,    2031,    5978,    5974,    5964,    2218,    5163,    2601,    5354
    5336,      21,     298,    2032,      46,      22,     315,    2219,      35
    5337,     298,     299,    2033,    2032,     315,     316,    2220,    2219
    5338,     299,     300,    2034,    2033,     316,     317,    2221,    2220
    5339,     300,     301,    2035,    2034,     317,     318,    2222,    2221
    5340,     301,     302,    2036,    2035,     318,     319,    2223,    2222
    5341,     302,     303,    2037,    2036,     319,     320,    2224,    2223
    5342,     303,     304,    2038,    2037,     320,     321,    2225,    2224
    5343,     304,     305,    2039,    2038,     321,     322,    2226,    2225
    5344,     305,     306,    2040,    2039,     322,     323,    2227,    2226
    5345,     306,     307,    2041,    2040,     323,     324,    2228,    2227
    5346,     307,     308,    2042,    2041,     324,     325,    2229,    2228
    5347,     308,     309,    2043,    2042,     325,     326,    2230,    2229
    5348,     309,     310,    2044,    2043,     326,     327,    2231,    2230
    5349,     310,     311,    2045,    2044,     327,     328,    2232,    2231
    5350,     311,     312,    2046,    2045,     328,     329,    2233,    2232
    5351,     312,     313,    2047,    2046,     329,     330,    2234,    2233
    5352,     313,     314,    2048,    2047,     330,     331,    2235,    2234
    5353,     314,    2606,    5460,    2048,     331,    5260,    5397,    2235
    5354,      46,    2032,    2049,      47,      35,    2219,    2236,      36
    5355,    2032,    2033,    2050,    2049,    2219,    2220,    2237,    2236
    5356,    2033,    2034,    2051,    2050,    2220,    2221,    2238,    2237
    5357,    2034,    2035,    2052,    2051,    2221,    2222,    2239,    2238
    5358,    2035,    2036,    2053,    2052,    2222,    2223,    2240,    2239
    5359,    2036,    2037,    2054,    2053,    2223,    2224,    2241,    2240
    5360,    2037,    2038,    2055,    2054,    2224,    2225,    2242,    2241
    5361,    2038,    2039,    2056,    2055,    2225,    2226,    2243,    2242
    5362,    2039,    2040,    2057,    2056,    2226,    2227,    2244,    2243
    5363,    2040,    2041,    2058,    2057,    2227,    2228,    2245,    2244
    5364,    2041,    2042,    2059,    2058,    2228,    2229,    2246,    2245
    5365,    2042,    2043,    2060,    2059,    2229,    2230,    2247,    2246
    5366,    2043,    2044,    2061,    2060,    2230,    2231,    2248,    2247
    5367,    2044,    2045,    2062,    2061,    2231,    2232,    2249,    2248
    5368,    2045,    2046,    2063,    2062,    2232,    2233,    2250,    2249
    5369,    2046,    2047,    2064,    2063,    2233,    2234,    2251,    2250
    5370,    2047,    2048,    2065,    2064,    2234,    2235,    2252,    2251
    5371,    2048,    5460,    5459,    2065,    2235,    5397,    5398,    2252
    5372,      47,    2049,    2066,      48,      36,    2236,    2253,      37
    5373,    2049,    2050,    2067,    2066,    2236,    2237,    2254,    2253
    5374,    2050,    2051,    2068,    2067,    2237,    2238,    2255,    2254
    5375,    2051,    2052,    2069,    2068,    2238,    2239,    2256,    2255
    5376,    2052,    2053,    2070,    2069,    2239,    2240,    2257,    2256
    5377,    2053,    2054,    2071,    2070,    2240,    2241,    2258,    2257
    5378,    2054,    2055,    2072,    2071,    2241,    2242,    2259,    2258
    5379,    2055,    2056,    2073,    2072,    2242,    2243,    2260,    2259
    5380,    2056,    2057,    2074,    2073,    2243,    2244,    2261,    2260
    5381,    2057,    2058,    2075,    2074,    2244,    2245,    2262,    2261
    5382,    2058,    2059,    2076,    2075,    2245,    2246,    2263,    2262
    5383,    2059,    2060,    2077,    2076,    2246,    2247,    2264,    2263
    5384,    2060,    2061,    2078,    2077,    2247,    2248,    2265,    2264
    5385,    2061,    2062,    2079,    2078,    2248,    2249,    2266,    2265
    5386,    2062,    2063,    2080,    2079,    2249,    2250,    2267,    2266
    5387,    2063,    2064,    2081,    2080,    2250,    2251,    2268,    2267
    5388,    2064,    2065,    2082,    2081,    2251,    2252,    2269,    2268
    5389,    2065,    5459,    2609,    2082,    2252,    5398,    5258,    2269
    5390,      48,    2066,    2083,      49,      37,    2253,    2270,      38
    5391,    2066,    2067,    2084,    2083,    2253,    2254,    2271,    2270
    5392,    2067,    2068,    2085,    2084,    2254,    2255,    2272,    2271
    5393,    2068,    2069,    2086,    2085,    2255,    2256,    2273,    2272
    5394,    2069,    2070,    2087,    2086,    2256,    2257,    2274,    2273
    5395,    2070,    2071,    2088,    2087,    2257,    2258,    2275,    2274
    5396,    2071,    2072,    2089,    2088,    2258,    2259,    2276,    2275
    5397,    2072,    2073,    2090,    2089,    2259,    2260,    2277,    2276
    5398,    2073,    2074,    2091,    2090,    2260,    2261,    2278,    2277
    5399,    2074,    2075,    2092,    2091,    2261,    2262,    2279,    2278
    5400,    2075,    2076,    2093,    2092,    2262,    2263,    2280,    2279
    5401,    2076,    2077,    2094,    2093,    2263,    2264,    2281,    2280
    5402,    2077,    2078,    2095,    2094,    2264,    2265,    2282,    2281
    5403,    2078,    2079,    2096,    2095,    2265,    2266,    2283,    2282
    5404,    2079,    2080,    2097,    2096,    2266,    2267,    2284,    2283
    5405,    2080,    2081,    2098,    2097,    2267,    2268,    2285,    2284
    5406,    2081,    2082,    2099,    2098,    2268,    2269,    2286,    2285
    5407,    2082,    2609,    5786,    2099,    2269,    5258,    5731,    2286
    5408,      49,    2083,    2100,      50,      38,    2270,    2287,      39
    5409,    2083,    2084,    2101,    2100,    2270,    2271,    2288,    2287
    5410,    2084,    2085,    2102,    2101,    2271,    2272,    2289,    2288
    5411,    2085,    2086,    2103,    2102,    2272,    2273,    2290,    2289
    5412,    2086,    2087,    2104,    2103,    2273,    2274,    2291,    2290
    5413,    2087,    2088,    2105,    2104,    2274,    2275,    2292,    2291
    5414,    2088,    2089,    2106,    2105,    2275,    2276,    2293,    2292
    5415,    2089,    2090,    2107,    2106,    2276,    2277,    2294,    2293
    5416,    2090,    2091,    2108,    2107,    2277,    2278,    2295,    2294
    5417,    2091,    2092,    2109,    2108,    2278,    2279,    2296,    2295
    5418,    2092,    2093,    2110,    2109,    2279,    2280,    2297,    2296
    5419,    2093,    2094,    2111,    2110,    2280,    2281,    2298,    2297
    5420,    2094,    2095,    2112,    2111,    2281,    2282,    2299,    2298
    5421,    2095,    2096,    2113,    2112,    2282,    2283,    2300,    2299
    5422,    2096,    2097,    2114,    2113,    2283,    2284,    2301,    2300
    5423,    2097,    2098,    2115,    2114,    2284,    2285,    2302,    2301
    5424,    2098,    2099,    2116,    2115,    2285,    2286,    2303,    2302
    5425,    2099,    5786,    5785,    2116,    2286,    5731,    5732,    2303
    5426,      50,    2100,    2117,      51,      39,    2287,    2304,      40
    5427,    2100,    2101,    2118,    2117,    2287,    2288,    2305,    2304
    5428,    2101,    2102,    2119,    2118,    2288,    2289,    2306,    2305
    5429,    2102,    2103,    2120,    2119,    2289,    2290,    2307,    2306
    5430,    2103,    2104,    2121,    2120,    2290,    2291,    2308,    2307
    5431,    2104,    2105,    2122,    2121,    2291,    2292,    2309,    2308
    5432,    2105,    2106,    2123,    2122,    2292,    2293,    2310,    2309
    5433,    2106,    2107,    2124,    2123,    2293,    2294,    2311,    2310
    5434,    2107,    2108,    2125,    2124,    2294,    2295,    2312,    2311
    5435,    2108,    2109,    2126,    2125,    2295,    2296,    2313,    2312
    5436,    2109,    2110,    2127,    2126,    2296,    2297,    2314,    2313
    5437,    2110,    2111,    2128,    2127,    2297,    2298,    2315,    2314
    5438,    2111,    2112,    2129,    2128,    2298,    2299,    2316,    2315
    5439,    2112,    2113,    2130,    2129,    2299,    2300,    2317,    2316
    5440,    2113,    2114,    2131,    2130,    2300,    2301,    2318,    2317
    5441,    2114,    2115,    2132,    2131,    2301,    2302,    2319,    2318
    5442,    2115,    2116,    2133,    2132,    2302,    2303,    2320,    2319
    5443,    2116,    5785,    2610,    2133,    2303,    5732,    5252,    2320
    5444,      51,    2117,    2134,      52,      40,    2304,    2321,      41
    5445,    2117,    2118,    2135,    2134,    2304,    2305,    2322,    2321
    5446,    2118,    2119,    2136,    2135,    2305,    2306,    2323,    2322
    5447,    2119,    2120,    2137,    2136,    2306,    2307,    2324,    2323
    5448,    2120,    2121,    2138,    2137,    2307,    2308,    2325,    2324
    5449,    2121,    2122,    2139,    2138,    2308,    2309,    2326,    2325
    5450,    2122,    2123,    2140,    2139,    2309,    2310,    2327,    2326
    5451,    2123,    2124,    2141,    2140,    2310,    2311,    2328,    2327
    5452,    2124,    2125,    2142,    2141,    2311,    2312,    2329,    2328
    5453,    2125,    2126,    2143,    2142,    2312,    2313,    2330,    2329
    5454,    2126,    2127,    2144,    2143,    2313,    2314,    2331,    2330
    5455,    2127,    2128,    2145,    2144,    2314,    2315,    2332,    2331
    5456,    2128,    2129,    2146,    2145,    2315,    2316,    2333,    2332
    5457,    2129,    2130,    2147,    2146,    2316,    2317,    2334,    2333
    5458,    2130,    2131,    2148,    2147,    2317,    2318,    2335,    2334
    5459,    2131,    2132,    2149,    2148,    2318,    2319,    2336,    2335
    5460,    2132,    2133,    2150,    2149,    2319,    2320,    2337,    2336
    5461,    2133,    2610,    5676,    2150,    2320,    5252,    5605,    2337
    5462,      52,    2134,    2151,      53,      41,    2321,    2338,      42
    5463,    2134,    2135,    2152,    2151,    2321,    2322,    2339,    2338
    5464,    2135,    2136,    2153,    2152,    2322,    2323,    2340,    2339
    5465,    2136,    2137,    2154,    2153,    2323,    2324,    2341,    2340
    5466,    2137,    2138,    2155,    2154,    2324,    2325,    2342,    2341
    5467,    2138,    2139,    2156,    2155,    2325,    2326,    2343,    2342
    5468,    2139,    2140,    2157,    2156,    2326,    2327,    2344,    2343
    5469,    2140,    2141,    2158,    2157,    2327,    2328,    2345,    2344
    5470,    2141,    2142,    2159,    2158,    2328,    2329,    2346,    2345
    5471,    2142,    2143,    2160,    2159,    2329,    2330,    2347,    2346
    5472,    2143,    2144,    2161,    2160,    2330,    2331,    2348,    2347
    5473,    2144,    2145,    2162,    2161,    2331,    2332,    2349,    2348
    5474,    2145,    2146,    2163,    2162,    2332,    2333,    2350,    2349
    5475,    2146,    2147,    2164,    2163,    2333,    2334,    2351,    2350
    5476,    2147,    2148,    2165,    2164,    2334,    2335,    2352,    2351
    5477,    2148,    2149,    2166,    2165,    2335,    2336,    2353,    2352
    5478,    2149,    2150,    2167,    2166,    2336,    2337,    2354,    2353
    5479,    2150,    5676,    5675,    2167,    2337,    5605,    5606,    2354
    5480,      53,    2151,    2168,      54,      42,    2338,    2355,      43
    5481,    2151,    2152,    2169,    2168,    2338,    2339,    2356,    2355
    5482,    2152,    2153,    2170,    2169,    2339,    2340,    2357,    2356
    5483,    2153,    2154,    2171,    2170,    2340,    2341,    2358,    2357
    5484,    2154,    2155,    2172,    2171,    2341,    2342,    2359,    2358
    5485,    2155,    2156,    2173,    2172,    2342,    2343,    2360,    2359
    5486,    2156,    2157,    2174,    2173,    2343,    2344,    2361,    2360
    5487,    2157,    2158,    2175,    2174,    2344,    2345,    2362,    2361
    5488,    2158,    2159,    2176,    2175,    2345,    2346,    2363,    2362
    5489,    2159,    2160,    2177,    2176,    2346,    2347,    2364,    2363
    5490,    2160,    2161,    2178,    2177,    2347,    2348,    2365,    2364
    5491,    2161,    2162,    2179,    2178,    2348,    2349,    2366,    2365
    5492,    2162,    2163,    2180,    2179,    2349,    2350,    2367,    2366
    5493,    2163,    2164,    2181,    2180,    2350,    2351,    2368,    2367
    5494,    2164,    2165,    2182,    2181,    2351,    2352,    2369,    2368
    5495,    2165,    2166,    2183,    2182,    2352,    2353,    2370,    2369
    5496,    2166,    2167,    2184,    2183,    2353,    2354,    2371,    2370
    5497,    2167,    5675,    2611,    2184,    2354,    5606,    5250,    2371
    5498,      54,    2168,    2185,      55,      43,    2355,    2372,      44
    5499,    2168,    2169,    2186,    2185,    2355,    2356,    2373,    2372
    5500,    2169,    2170,    2187,    2186,    2356,    2357,    2374,    2373
    5501,    2170,    2171,    2188,    2187,    2357,    2358,    2375,    2374
    5502,    2171,    2172,    2189,    2188,    2358,    2359,    2376,    2375
    5503,    2172,    2173,    2190,    2189,    2359,    2360,    2377,    2376
    5504,    2173,    2174,    2191,    2190,    2360,    2361,    2378,    2377
    5505,    2174,    2175,    2192,    2191,    2361,    2362,    2379,    2378
    5506,    2175,    2176,    2193,    2192,    2362,    2363,    2380,    2379
    5507,    2176,    2177,    2194,    2193,    2363,    2364,    2381,    2380
    5508,    2177,    2178,    2195,    2194,    2364,    2365,    2382,    2381
    5509,    2178,    2179,    2196,    2195,    2365,    2366,    2383,    2382
    5510,    2179,    2180,    2197,    2196,    2366,    2367,    2384,    2383
    5511,    2180,    2181,    2198,    2197,    2367,    2368,    2385,    2384
    5512,    2181,    2182,    2199,    2198,    2368,    2369,    2386,    2385
    5513,    2182,    2183,    2200,    2199,    2369,    2370,    2387,    2386
    5514,    2183,    2184,    2201,    2200,    2370,    2371,    2388,    2387
    5515,    2184,    2611,    5164,    2201,    2371,    5250,    5241,    2388
    5516,      55,    2185,    2202,      56,      44,    2372,    2389,      45
    5517,    2185,    2186,    2203,    2202,    2372,    2373,    2390,    2389
    5518,    2186,    2187,    2204,    2203,    2373,    2374,    2391,    2390
    5519,    2187,    2188,    2205,    2204,    2374,    2375,    2392,    2391
    5520,    2188,    2189,    2206,    2205,    2375,    2376,    2393,    2392
    5521,    2189,    2190,    2207,    2206,    2376,    2377,    2394,    2393
    5522,    2190,    2191,    2208,    2207,    2377,    2378,    2395,    2394
    5523,    2191,    2192,    2209,    2208,    2378,    2379,    2396,    2395
    5524,    2192,    2193,    2210,    2209,    2379,    2380,    2397,    2396
    5525,    2193,    2194,    2211,    2210,    2380,    2381,    2398,    2397
    5526,    2194,    2195,    2212,    2211,    2381,    2382,    2399,    2398
    5527,    2195,    2196,    2213,    2212,    2382,    2383,    2400,    2399
    5528,    2196,    2197,    2214,    2213,    2383,    2384,    2401,    2400
    5529,    2197,    2198,    2215,    2214,    2384,    2385,    2402,    2401
    5530,    2198,    2199,    2216,    2215,    2385,    2386,    2403,    2402
    5531,    2199,    2200,    2217,    2216,    2386,    2387,    2404,    2403
    5532,    2200,    2201,    2218,    2217,    2387,    2388,    2405,    2404
    5533,    2201,    5164,    5163,    2218,    2388,    5241,    5239,    2405
    5534,      56,    2202,    6163,    2627,      45,    2389,    6108,    5279
    5535,    2202,    2203,    6164,    6163,    2389,    2390,    6107,    6108
    5536,    2203,    2204,    2637,    6164,    2390,    2391,    5276,    6107
    5537,    2204,    2205,    6353,    2637,    2391,    2392,    6252,    5276
    5538,    2205,    2206,    6354,    6353,    2392,    2393,    6251,    6252
    5539,    2206,    2207,    2636,    6354,    2393,    2394,    5270,    6251
    5540,    2207,    2208,    6511,    2636,    2394,    2395,    6410,    5270
    5541,    2208,    2209,    6512,    6511,    2395,    2396,    6409,    6410
    5542,    2209,    2210,    2635,    6512,    2396,    2397,    5268,    6409
    5543,    2210,    2211,    6669,    2635,    2397,    2398,    6568,    5268
    5544,    2211,    2212,    6670,    6669,    2398,    2399,    6567,    6568
    5545,    2212,    2213,    2634,    6670,    2399,    2400,    5262,    6567
    5546,    2213,    2214,    6755,    2634,    2400,    2401,    6726,    5262
    5547,    2214,    2215,    6756,    6755,    2401,    2402,    6725,    6726
    5548,    2215,    2216,    2633,    6756,    2402,    2403,    5236,    6725
    5549,    2216,    2217,    5353,    2633,    2403,    2404,    5342,    5236
    5550,    2217,    2218,    5354,    5353,    2404,    2405,    5341,    5342
    5551,    2218,    5163,    2601,    5354,    2405,    5239,    5231,    5341
    5552,      22,     315,    2219,      35,      23,     332,    2406,      24
    5553,     315,     316,    2220,    2219,     332,     333,    2407,    2406
    5554,     316,     317,    2221,    2220,     333,     334,    2408,    2407
    5555,     317,     318,    2222,    2221,     334,     335,    2409,    2408
    5556,     318,     319,    2223,    2222,     335,     336,    2410,    2409
    5557,     319,     320,    2224,    2223,     336,     337,    2411,    2410
    5558,     320,     321,    2225,    2224,     337,     338,    2412,    2411
    5559,     321,     322,    2226,    2225,     338,     339,    2413,    2412
    5560,     322,     323,    2227,    2226,     339,     340,    2414,    2413
    5561,     323,     324,    2228,    2227,     340,     341,    2415,    2414
    5562,     324,     325,    2229,    2228,     341,     342,    2416,    2415
    5563,     325,     326,    2230,    2229,     342,     343,    2417,    2416
    5564,     326,     327,    2231,    2230,     343,     344,    2418,    2417
    5565,     327,     328,    2232,    2231,     344,     345,    2419,    2418
    5566,     328,     329,    2233,    2232,     345,     346,    2420,    2419
    5567,     329,     330,    2234,    2233,     346,     347,    2421,    2420
    5568,     330,     331,    2235,    2234,     347,     348,    2422,    2421
    5569,     331,    5260,    5397,    2235,     348,    5259,    5403,    2422
    5570,      35,    2219,    2236,      36,      24,    2406,    2423,      25
    5571,    2219,    2220,    2237,    2236,    2406,    2407,    2424,    2423
    5572,    2220,    2221,    2238,    2237,    2407,    2408,    2425,    2424
    5573,    2221,    2222,    2239,    2238,    2408,    2409,    2426,    2425
    5574,    2222,    2223,    2240,    2239,    2409,    2410,    2427,    2426
    5575,    2223,    2224,    2241,    2240,    2410,    2411,    2428,    2427
    5576,    2224,    2225,    2242,    2241,    2411,    2412,    2429,    2428
    5577,    2225,    2226,    2243,    2242,    2412,    2413,    2430,    2429
    5578,    2226,    2227,    2244,    2243,    2413,    2414,    2431,    2430
    5579,    2227,    2228,    2245,    2244,    2414,    2415,    2432,    2431
    5580,    2228,    2229,    2246,    2245,    2415,    2416,    2433,    2432
    5581,    2229,    2230,    2247,    2246,    2416,    2417,    2434,    2433
    5582,    2230,    2231,    2248,    2247,    2417,    2418,    2435,    2434
    5583,    2231,    2232,    2249,    2248,    2418,    2419,    2436,    2435
    5584,    2232,    2233,    2250,    2249,    2419,    2420,    2437,    2436
    5585,    2233,    2234,    2251,    2250,    2420,    2421,    2438,    2437
    5586,    2234,    2235,    2252,    2251,    2421,    2422,    2439,    2438
    5587,    2235,    5397,    5398,    2252,    2422,    5403,    5404,    2439
    5588,      36,    2236,    2253,      37,      25,    2423,    2440,      26
    5589,    2236,    2237,    2254,    2253,    2423,    2424,    2441,    2440
    5590,    2237,    2238,    2255,    2254,    2424,    2425,    2442,    2441
    5591,    2238,    2239,    2256,    2255,    2425,    2426,    2443,    2442
    5592,    2239,    2240,    2257,    2256,    2426,    2427,    2444,    2443
    5593,    2240,    2241,    2258,    2257,    2427,    2428,    2445,    2444
    5594,    2241,    2242,    2259,    2258,    2428,    2429,    2446,    2445
    5595,    2242,    2243,    2260,    2259,    2429,    2430,    2447,    2446
    5596,    2243,    2244,    2261,    2260,    2430,    2431,    2448,    2447
    5597,    2244,    2245,    2262,    2261,    2431,    2432,    2449,    2448
    5598,    2245,    2246,    2263,    2262,    2432,    2433,    2450,    2449
    5599,    2246,    2247,    2264,    2263,    2433,    2434,    2451,    2450
    5600,    2247,    2248,    2265,    2264,    2434,    2435,    2452,    2451
    5601,    2248,    2249,    2266,    2265,    2435,    2436,    2453,    2452
    5602,    2249,    2250,    2267,    2266,    2436,    2437,    2454,    2453
    5603,    2250,    2251,    2268,    2267,    2437,    2438,    2455,    2454
    5604,    2251,    2252,    2269,    2268,    2438,    2439,    2456,    2455
    5605,    2252,    5398,    5258,    2269,    2439,    5404,    5257,    2456
    5606,      37,    2253,    2270,      38,      26,    2440,    2457,      27
    5607,    2253,    2254,    2271,    2270,    2440,    2441,    2458,    2457
    5608,    2254,    2255,    2272,    2271,    2441,    2442,    2459,    2458
    5609,    2255,    2256,    2273,    2272,    2442,    2443,    2460,    2459
    5610,    2256,    2257,    2274,    2273,    2443,    2444,    2461,    2460
    5611,    2257,    2258,    2275,    2274,    2444,    2445,    2462,    2461
    5612,    2258,    2259,    2276,    2275,    2445,    2446,    2463,    2462
    5613,    2259,    2260,    2277,    2276,    2446,    2447,    2464,    2463
    5614,    2260,    2261,    2278,    2277,    2447,    2448,    2465,    2464
    5615,    2261,    2262,    2279,    2278,    2448,    2449,    2466,    2465
    5616,    2262,    2263,    2280,    2279,    2449,    2450,    2467,    2466
    5617,    2263,    2264,    2281,    2280,    2450,    2451,    2468,    2467
    5618,    2264,    2265,    2282,    2281,    2451,    2452,    2469,    2468
    5619,    2265,    2266,    2283,    2282,    2452,    2453,    2470,    2469
    5620,    2266,    2267,    2284,    2283,    2453,    2454,    2471,    2470
    5621,    2267,    2268,    2285,    2284,    2454,    2455,    2472,    2471
    5622,    2268,    2269,    2286,    2285,    2455,    2456,    2473,    2472
    5623,    2269,    5258,    5731,    2286,    2456,    5257,    5737,    2473
    5624,      38,    2270,    2287,      39,      27,    2457,    2474,      28
    5625,    2270,    2271,    2288,    2287,    2457,    2458,    2475,    2474
    5626,    2271,    2272,    2289,    2288,    2458,    2459,    2476,    2475
    5627,    2272,    2273,    2290,    2289,    2459,    2460,    2477,    2476
    5628,    2273,    2274,    2291,    2290,    2460,    2461,    2478,    2477
    5629,    2274,    2275,    2292,    2291,    2461,    2462,    2479,    2478
    5630,    2275,    2276,    2293,    2292,    2462,    2463,    2480,    2479
    5631,    2276,    2277,    2294,    2293,    2463,    2464,    2481,    2480
    5632,    2277,    2278,    2295,    2294,    2464,    2465,    2482,    2481
    5633,    2278,    2279,    2296,    2295,    2465,    2466,    2483,    2482
    5634,    2279,    2280,    2297,    2296,    2466,    2467,    2484,    2483
    5635,    2280,    2281,    2298,    2297,    2467,    2468,    2485,    2484
    5636,    2281,    2282,    2299,    2298,    2468,    2469,    2486,    2485
    5637,    2282,    2283,    2300,    2299,    2469,    2470,    2487,    2486
    5638,    2283,    2284,    2301,    2300,    2470,    2471,    2488,    2487
    5639,    2284,    2285,    2302,    2301,    2471,    2472,    2489,    2488
    5640,    2285,    2286,    2303,    2302,    2472,    2473,    2490,    2489
    5641,    2286,    5731,    5732,    2303,    2473,    5737,    5738,    2490
    5642,      39,    2287,    2304,      40,      28,    2474,    2491,      29
    5643,    2287,    2288,    2305,    2304,    2474,    2475,    2492,    2491
    5644,    2288,    2289,    2306,    2305,    2475,    2476,    2493,    2492
    5645,    2289,    2290,    2307,    2306,    2476,    2477,    2494,    2493
    5646,    2290,    2291,    2308,    2307,    2477,    2478,    2495,    2494
    5647,    2291,    2292,    2309,    2308,    2478,    2479,    2496,    2495
    5648,    2292,    2293,    2310,    2309,    2479,    2480,    2497,    2496
    5649,    2293,    2294,    2311,    2310,    2480,    2481,    2498,    2497
    5650,    2294,    2295,    2312,    2311,    2481,    2482,    2499,    2498
    5651,    2295,    2296,    2313,    2312,    2482,    2483,    2500,    2499
    5652,    2296,    2297,    2314,    2313,    2483,    2484,    2501,    2500
    5653,    2297,    2298,    2315,    2314,    2484,    2485,    2502,    2501
    5654,    2298,    2299,    2316,    2315,    2485,    2486,    2503,    2502
    5655,    2299,    2300,    2317,    2316,    2486,    2487,    2504,    2503
    5656,    2300,    2301,    2318,    2317,    2487,    2488,    2505,    2504
    5657,    2301,    2302,    2319,    2318,    2488,    2489,    2506,    2505
    5658,    2302,    2303,    2320,    2319,    2489,    2490,    2507,    2506
    5659,    2303,    5732,    5252,    2320,    2490,    5738,    5251,    2507
    5660,      40,    2304,    2321,      41,      29,    2491,    2508,      30
    5661,    2304,    2305,    2322,    2321,    2491,    2492,    2509,    2508
    5662,    2305,    2306,    2323,    2322,    2492,    2493,    2510,    2509
    5663,    2306,    2307,    2324,    2323,    2493,    2494,    2511,    2510
    5664,    2307,    2308,    2325,    2324,    2494,    2495,    2512,    2511
    5665,    2308,    2309,    2326,    2325,    2495,    2496,    2513,    2512
    5666,    2309,    2310,    2327,    2326,    2496,    2497,    2514,    2513
    5667,    2310,    2311,    2328,    2327,    2497,    2498,    2515,    2514
    5668,    2311,    2312,    2329,    2328,    2498,    2499,    2516,    2515
    5669,    2312,    2313,    2330,    2329,    2499,    2500,    2517,    2516
    5670,    2313,    2314,    2331,    2330,    2500,    2501,    2518,    2517
    5671,    2314,    2315,    2332,    2331,    2501,    2502,    2519,    2518
    5672,    2315,    2316,    2333,    2332,    2502,    2503,    2520,    2519
    5673,    2316,    2317,    2334,    2333,    2503,    2504,    2521,    2520
    5674,    2317,    2318,    2335,    2334,    2504,    2505,    2522,    2521
    5675,    2318,    2319,    2336,    2335,    2505,    2506,    2523,    2522
    5676,    2319,    2320,    2337,    2336,    2506,    2507,    2524,    2523
    5677,    2320,    5252,    5605,    2337,    2507,    5251,    5611,    2524
    5678,      41,    2321,    2338,      42,      30,    2508,    2525,      31
    5679,    2321,    2322,    2339,    2338,    2508,    2509,    2526,    2525
    5680,    2322,    2323,    2340,    2339,    2509,    2510,    2527,    2526
    5681,    2323,    2324,    2341,    2340,    2510,    2511,    2528,    2527
    5682,    2324,    2325,    2342,    2341,    2511,    2512,    2529,    2528
    5683,    2325,    2326,    2343,    2342,    2512,    2513,    2530,    2529
    5684,    2326,    2327,    2344,    2343,    2513,    2514,    2531,    2530
    5685,    2327,    2328,    2345,    2344,    2514,    2515,    2532,    2531
    5686,    2328,    2329,    2346,    2345,    2515,    2516,    2533,    2532
    5687,    2329,    2330,    2347,    2346,    2516,    2517,    2534,    2533
    5688,    2330,    2331,    2348,    2347,    2517,    2518,    2535,    2534
    5689,    2331,    2332,    2349,    2348,    2518,    2519,    2536,    2535
    5690,    2332,    2333,    2350,    2349,    2519,    2520,    2537,    2536
    5691,    2333,    2334,    2351,    2350,    2520,    2521,    2538,    2537
    5692,    2334,    2335,    2352,    2351,    2521,    2522,    2539,    2538
    5693,    2335,    2336,    2353,    2352,    2522,    2523,    2540,    2539
    5694,    2336,    2337,    2354,    2353,    2523,    2524,    2541,    2540
    5695,    2337,    5605,    5606,    2354,    2524,    5611,    5612,    2541
    5696,      42,    2338,    2355,      43,      31,    2525,    2542,      32
    5697,    2338,    2339,    2356,    2355,    2525,    2526,    2543,    2542
    5698,    2339,    2340,    2357,    2356,    2526,    2527,    2544,    2543
    5699,    2340,    2341,    2358,    2357,    2527,    2528,    2545,    2544
    5700,    2341,    2342,    2359,    2358,    2528,    2529,    2546,    2545
    5701,    2342,    2343,    2360,    2359,    2529,    2530,    2547,    2546
    5702,    2343,    2344,    2361,    2360,    2530,    2531,    2548,    2547
    5703,    2344,    2345,    2362,    2361,    2531,    2532,    2549,    2548
    5704,    2345,    2346,    2363,    2362,    2532,    2533,    2550,    2549
    5705,    2346,    2347,    2364,    2363,    2533,    2534,    2551,    2550
    5706,    2347,    2348,    2365,    2364,    2534,    2535,    2552,    2551
    5707,    2348,    2349,    2366,    2365,    2535,    2536,    2553,    2552
    5708,    2349,    2350,    2367,    2366,    2536,    2537,    2554,    2553
    5709,    2350,    2351,    2368,    2367,    2537,    2538,    2555,    2554
    5710,    2351,    2352,    2369,    2368,    2538,    2539,    2556,    2555
    5711,    2352,    2353,    2370,    2369,    2539,    2540,    2557,    2556
    5712,    2353,    2354,    2371,    2370,    2540,    2541,    2558,    2557
    5713,    2354,    5606,    5250,    2371,    2541,    5612,    5249,    2558
    5714,      43,    2355,    2372,      44,      32,    2542,    2559,      33
    5715,    2355,    2356,    2373,    2372,    2542,    2543,    2560,    2559
    5716,    2356,    2357,    2374,    2373,    2543,    2544,    2561,    2560
    5717,    2357,    2358,    2375,    2374,    2544,    2545,    2562,    2561
    5718,    2358,    2359,    2376,    2375,    2545,    2546,    2563,    2562
    5719,    2359,    2360,    2377,    2376,    2546,    2547,    2564,    2563
    5720,    2360,    2361,    2378,    2377,    2547,    2548,    2565,    2564
    5721,    2361,    2362,    2379,    2378,    2548,    2549,    2566,    2565
    5722,    2362,    2363,    2380,    2379,    2549,    2550,    2567,    2566
    5723,    2363,    2364,    2381,    2380,    2550,    2551,    2568,    2567
    5724,    2364,    2365,    2382,    2381,    2551,    2552,    2569,    2568
    5725,    2365,    2366,    2383,    2382,    2552,    2553,    2570,    2569
    5726,    2366,    2367,    2384,    2383,    2553,    2554,    2571,    2570
    5727,    2367,    2368,    2385,    2384,    2554,    2555,    2572,    2571
    5728,    2368,    2369,    2386,    2385,    2555,    2556,    2573,    2572
    5729,    2369,    2370,    2387,    2386,    2556,    2557,    2574,    2573
    5730,    2370,    2371,    2388,    2387,    2557,    2558,    2575,    2574
    5731,    2371,    5250,    5241,    2388,    2558,    5249,    5242,    2575
    5732,      44,    2372,    2389,      45,      33,    2559,    2576,      34
    5733,    2372,    2373,    2390,    2389,    2559,    2560,    2577,    2576
    5734,    2373,    2374,    2391,    2390,    2560,    2561,    2578,    2577
    5735,    2374,    2375,    2392,    2391,    2561,    2562,    2579,    2578
    5736,    2375,    2376,    2393,    2392,    2562,    2563,    2580,    2579
    5737,    2376,    2377,    2394,    2393,    2563,    2564,    2581,    2580
    5738,    2377,    2378,    2395,    2394,    2564,    2565,    2582,    2581
    5739,    2378,    2379,    2396,    2395,    2565,    2566,    2583,    2582
    5740,    2379,    2380,    2397,    2396,    2566,    2567,    2584,    2583
    5741,    2380,    2381,    2398,    2397,    2567,    2568,    2585,    2584
    5742,    2381,    2382,    2399,    2398,    2568,    2569,    2586,    2585
    5743,    2382,    2383,    2400,    2399,    2569,    2570,    2587,    2586
    5744,    2383,    2384,    2401,    2400,    2570,    2571,    2588,    2587
    5745,    2384,    2385,    2402,    2401,    2571,    2572,    2589,    2588
    5746,    2385,    2386,    2403,    2402,    2572,    2573,    2590,    2589
    5747,    2386,    2387,    2404,    2403,    2573,    2574,    2591,    2590
    5748,    2387,    2388,    2405,    2404,    2574,    2575,    2592,    2591
    5749,    2388,    5241,    5239,    2405,    2575,    5242,    5240,    2592
    5750,      45,    2389,    6108,    5279,      34,    2576,    6102,    5280
    5751,    2389,    2390,    6107,    6108,    2576,    2577,    6101,    6102
    5752,    2390,    2391,    5276,    6107,    2577,    2578,    5275,    6101
    5753,    2391,    2392,    6252,    5276,    2578,    2579,    6258,    5275
    5754,    2392,    2393,    6251,    6252,    2579,    2580,    6257,    6258
    5755,    2393,    2394,    5270,    6251,    2580,    2581,    5269,    6257
    5756,    2394,    2395,    6410,    5270,    2581,    2582,    6416,    5269
    5757,    2395,    2396,    6409,    6410,    2582,    2583,    6415,    6416
    5758,    2396,    2397,    5268,    6409,    2583,    2584,    5267,    6415
    5759,    2397,    2398,    6568,    5268,    2584,    2585,    6574,    5267
    5760,    2398,    2399,    6567,    6568,    2585,    2586,    6573,    6574
    5761,    2399,    2400,    5262,    6567,    2586,    2587,    5261,    6573
    5762,    2400,    2401,    6726,    5262,    2587,    2588,    6732,    5261
    5763,    2401,    2402,    6725,    6726,    2588,    2589,    6731,    6732
    5764,    2402,    2403,    5236,    6725,    2589,    2590,    5235,    6731
    5765,    2403,    2404,    5342,    5236,    2590,    2591,    5336,    5235
    5766,    2404,    2405,    5341,    5342,    2591,    2592,    5335,    5336
    5767,    2405,    5239,    5231,    5341,    2592,    5240,    5232,    5335
    5768,      23,     332,    2406,      24,    2648,    6121,    6118,    5452
    5769,     332,     333,    2407,    2406,    6121,    6122,    6117,    6118
    5770,     333,     334,    2408,    2407,    6122,    2649,    5447,    6117
    5771,     334,     335,    2409,    2408,    2649,    6317,    6314,    5447
    5772,     335,     336,    2410,    2409,    6317,    6318,    6313,    6314
    5773,     336,     337,    2411,    2410,    6318,    2650,    5443,    6313
    5774,     337,     338,    2412,    2411,    2650,    6475,    6472,    5443
    5775,     338,     339,    2413,    2412,    6475,    6476,    6471,    6472
    5776,     339,     340,    2414,    2413,    6476,    2651,    5439,    6471
    5777,     340,     341,    2415,    2414,    2651,    6649,    6646,    5439
    5778,     341,     342,    2416,    2415,    6649,    6650,    6645,    6646
    5779,     342,     343,    2417,    2416,    6650,    2652,    5435,    6645
    5780,     343,     344,    2418,    2417,    2652,    6803,    6798,    5435
    5781,     344,     345,    2419,    2418,    6803,    6804,    6797,    6798
    5782,     345,     346,    2420,    2419,    6804,    2653,    5427,    6797
    5783,     346,     347,    2421,    2420,    2653,    5363,    5430,    5427
    5784,     347,     348,    2422,    2421,    5363,    5364,    5416,    5430
    5785,     348,    5259,    5403,    2422,    5364,    2594,    5412,    5416
    5786,      24,    2406,    2423,      25,    5452,    6118,    6112,    5451
    5787,    2406,    2407,    2424,    2423,    6118,    6117,    6111,    6112
    5788,    2407,    2408,    2425,    2424,    6117,    5447,    5448,    6111
    5789,    2408,    2409,    2426,    2425,    5447,    6314,    6310,    5448
    5790,    2409,    2410,    2427,    2426,    6314,    6313,    6309,    6310
    5791,    2410,    2411,    2428,    2427,    6313,    5443,    5444,    6309
    5792,    2411,    2412,    2429,    2428,    5443,    6472,    6468,    5444
    5793,    2412,    2413,    2430,    2429,    6472,    6471,    6467,    6468
    5794,    2413,    2414,    2431,    2430,    6471,    5439,    5440,    6467
    5795,    2414,    2415,    2432,    2431,    5439,    6646,    6642,    5440
    5796,    2415,    2416,    2433,    2432,    6646,    6645,    6641,    6642
    5797,    2416,    2417,    2434,    2433,    6645,    5435,    5436,    6641
    5798,    2417,    2418,    2435,    2434,    5435,    6798,    6796,    5436
    5799,    2418,    2419,    2436,    2435,    6798,    6797,    6795,    6796
    5800,    2419,    2420,    2437,    2436,    6797,    5427,    5428,    6795
    5801,    2420,    2421,    2438,    2437,    5427,    5430,    5429,    5428
    5802,    2421,    2422,    2439,    2438,    5430,    5416,    5415,    5429
    5803,    2422,    5403,    5404,    2439,    5416,    5412,    5411,    5415
    5804,      25,    2423,    2440,      26,    5451,    6112,    6153,    2656
    5805,    2423,    2424,    2441,    2440,    6112,    6111,    6154,    6153
    5806,    2424,    2425,    2442,    2441,    6111,    5448,    2661,    6154
    5807,    2425,    2426,    2443,    2442,    5448,    6310,    6303,    2661
    5808,    2426,    2427,    2444,    2443,    6310,    6309,    6304,    6303
    5809,    2427,    2428,    2445,    2444,    6309,    5444,    2660,    6304
    5810,    2428,    2429,    2446,    2445,    5444,    6468,    6461,    2660
    5811,    2429,    2430,    2447,    2446,    6468,    6467,    6462,    6461
    5812,    2430,    2431,    2448,    2447,    6467,    5440,    2659,    6462
    5813,    2431,    2432,    2449,    2448,    5440,    6642,    6635,    2659
    5814,    2432,    2433,    2450,    2449,    6642,    6641,    6636,    6635
    5815,    2433,    2434,    2451,    2450,    6641,    5436,    2658,    6636
    5816,    2434,    2435,    2452,    2451,    5436,    6796,    6789,    2658
    5817,    2435,    2436,    2453,    2452,    6796,    6795,    6790,    6789
    5818,    2436,    2437,    2454,    2453,    6795,    5428,    2657,    6790
    5819,    2437,    2438,    2455,    2454,    5428,    5429,    5329,    2657
    5820,    2438,    2439,    2456,    2455,    5429,    5415,    5330,    5329
    5821,    2439,    5404,    5257,    2456,    5415,    5411,    2597,    5330
    5822,      26,    2440,    2457,      27,    2656,    6153,    6150,    5770
    5823,    2440,    2441,    2458,    2457,    6153,    6154,    6149,    6150
    5824,    2441,    2442,    2459,    2458,    6154,    2661,    5753,    6149
    5825,    2442,    2443,    2460,    2459,    2661,    6303,    6322,    5753
    5826,    2443,    2444,    2461,    2460,    6303,    6304,    6321,    6322
    5827,    2444,    2445,    2462,    2461,    6304,    2660,    5747,    6321
    5828,    2445,    2446,    2463,    2462,    2660,    6461,    6480,    5747
    5829,    2446,    2447,    2464,    2463,    6461,    6462,    6479,    6480
    5830,    2447,    2448,    2465,    2464,    6462,    2659,    5765,    6479
    5831,    2448,    2449,    2466,    2465,    2659,    6635,    6654,    5765
    5832,    2449,    2450,    2467,    2466,    6635,    6636,    6653,    6654
    5833,    2450,    2451,    2468,    2467,    6636,    2658,    5761,    6653
    5834,    2451,    2452,    2469,    2468,    2658,    6789,    6788,    5761
    5835,    2452,    2453,    2470,    2469,    6789,    6790,    6787,    6788
    5836,    2453,    2454,    2471,    2470,    6790,    2657,    5757,    6787
    5837,    2454,    2455,    2472,    2471,    2657,    5329,    5718,    5757
    5838,    2455,    2456,    2473,    2472,    5329,    5330,    5720,    5718
    5839,    2456,    5257,    5737,    2473,    5330,    2597,    5730,    5720
    5840,      27,    2457,    2474,      28,    5770,    6150,    6146,    5769
    5841,    2457,    2458,    2475,    2474,    6150,    6149,    6145,    6146
    5842,    2458,    2459,    2476,    2475,    6149,    5753,    5754,    6145
    5843,    2459,    2460,    2477,    2476,    5753,    6322,    6302,    5754
    5844,    2460,    2461,    2478,    2477,    6322,    6321,    6301,    6302
    5845,    2461,    2462,    2479,    2478,    6321,    5747,    5748,    6301
    5846,    2462,    2463,    2480,    2479,    5747,    6480,    6460,    5748
    5847,    2463,    2464,    2481,    2480,    6480,    6479,    6459,    6460
    5848,    2464,    2465,    2482,    2481,    6479,    5765,    5766,    6459
    5849,    2465,    2466,    2483,    2482,    5765,    6654,    6634,    5766
    5850,    2466,    2467,    2484,    2483,    6654,    6653,    6633,    6634
    5851,    2467,    2468,    2485,    2484,    6653,    5761,    5762,    6633
    5852,    2468,    2469,    2486,    2485,    5761,    6788,    6784,    5762
    5853,    2469,    2470,    2487,    2486,    6788,    6787,    6783,    6784
    5854,    2470,    2471,    2488,    2487,    6787,    5757,    5758,    6783
    5855,    2471,    2472,    2489,    2488,    5757,    5718,    5717,    5758
    5856,    2472,    2473,    2490,    2489,    5718,    5720,    5719,    5717
    5857,    2473,    5737,    5738,    2490,    5720,    5730,    5729,    5719
    5858,      28,    2474,    2491,      29,    5769,    6146,    6141,    2655
    5859,    2474,    2475,    2492,    2491,    6146,    6145,    6142,    6141
    5860,    2475,    2476,    2493,    2492,    6145,    5754,    2666,    6142
    5861,    2476,    2477,    2494,    2493,    5754,    6302,    6297,    2666
    5862,    2477,    2478,    2495,    2494,    6302,    6301,    6298,    6297
    5863,    2478,    2479,    2496,    2495,    6301,    5748,    2665,    6298
    5864,    2479,    2480,    2497,    2496,    5748,    6460,    6455,    2665
    5865,    2480,    2481,    2498,    2497,    6460,    6459,    6456,    6455
    5866,    2481,    2482,    2499,    2498,    6459,    5766,    2664,    6456
    5867,    2482,    2483,    2500,    2499,    5766,    6634,    6629,    2664
    5868,    2483,    2484,    2501,    2500,    6634,    6633,    6630,    6629
    5869,    2484,    2485,    2502,    2501,    6633,    5762,    2663,    6630
    5870,    2485,    2486,    2503,    2502,    5762,    6784,    6777,    2663
    5871,    2486,    2487,    2504,    2503,    6784,    6783,    6778,    6777
    5872,    2487,    2488,    2505,    2504,    6783,    5758,    2662,    6778
    5873,    2488,    2489,    2506,    2505,    5758,    5717,    5321,    2662
    5874,    2489,    2490,    2507,    2506,    5717,    5719,    5322,    5321
    5875,    2490,    5738,    5251,    2507,    5719,    5729,    2596,    5322
    5876,      29,    2491,    2508,      30,    2655,    6141,    6138,    5660
    5877,    2491,    2492,    2509,    2508,    6141,    6142,    6137,    6138
    5878,    2492,    2493,    2510,    2509,    6142,    2666,    5639,    6137
    5879,    2493,    2494,    2511,    2510,    2666,    6297,    6294,    5639
    5880,    2494,    2495,    2512,    2511,    6297,    6298,    6293,    6294
    5881,    2495,    2496,    2513,    2512,    6298,    2665,    5633,    6293
    5882,    2496,    2497,    2514,    2513,    2665,    6455,    6452,    5633
    5883,    2497,    2498,    2515,    2514,    6455,    6456,    6451,    6452
    5884,    2498,    2499,    2516,    2515,    6456,    2664,    5655,    6451
    5885,    2499,    2500,    2517,    2516,    2664,    6629,    6626,    5655
    5886,    2500,    2501,    2518,    2517,    6629,    6630,    6625,    6626
    5887,    2501,    2502,    2519,    2518,    6630,    2663,    5651,    6625
    5888,    2502,    2503,    2520,    2519,    2663,    6777,    6776,    5651
    5889,    2503,    2504,    2521,    2520,    6777,    6778,    6775,    6776
    5890,    2504,    2505,    2522,    2521,    6778,    2662,    5647,    6775
    5891,    2505,    2506,    2523,    2522,    2662,    5321,    5644,    5647
    5892,    2506,    2507,    2524,    2523,    5321,    5322,    5624,    5644
    5893,    2507,    5251,    5611,    2524,    5322,    2596,    5620,    5624
    5894,      30,    2508,    2525,      31,    5660,    6138,    6134,    5659
    5895,    2508,    2509,    2526,    2525,    6138,    6137,    6133,    6134
    5896,    2509,    2510,    2527,    2526,    6137,    5639,    5640,    6133
    5897,    2510,    2511,    2528,    2527,    5639,    6294,    6288,    5640
    5898,    2511,    2512,    2529,    2528,    6294,    6293,    6287,    6288
    5899,    2512,    2513,    2530,    2529,    6293,    5633,    5634,    6287
    5900,    2513,    2514,    2531,    2530,    5633,    6452,    6446,    5634
    5901,    2514,    2515,    2532,    2531,    6452,    6451,    6445,    6446
    5902,    2515,    2516,    2533,    2532,    6451,    5655,    5656,    6445
    5903,    2516,    2517,    2534,    2533,    5655,    6626,    6620,    5656
    5904,    2517,    2518,    2535,    2534,    6626,    6625,    6619,    6620
    5905,    2518,    2519,    2536,    2535,    6625,    5651,    5652,    6619
    5906,    2519,    2520,    2537,    2536,    5651,    6776,    6770,    5652
    5907,    2520,    2521,    2538,    2537,    6776,    6775,    6769,    6770
    5908,    2521,    2522,    2539,    2538,    6775,    5647,    5648,    6769
    5909,    2522,    2523,    2540,    2539,    5647,    5644,    5643,    5648
    5910,    2523,    2524,    2541,    2540,    5644,    5624,    5623,    5643
    5911,    2524,    5611,    5612,    2541,    5624,    5620,    5619,    5623
    5912,      31,    2525,    2542,      32,    5659,    6134,    6129,    2654
    5913,    2525,    2526,    2543,    2542,    6134,    6133,    6130,    6129
    5914,    2526,    2527,    2544,    2543,    6133,    5640,    2671,    6130
    5915,    2527,    2528,    2545,    2544,    5640,    6288,    6323,    2671
    5916,    2528,    2529,    2546,    2545,    6288,    6287,    6324,    6323
    5917,    2529,    2530,    2547,    2546,    6287,    5634,    2670,    6324
    5918,    2530,    2531,    2548,    2547,    5634,    6446,    6481,    2670
    5919,    2531,    2532,    2549,    2548,    6446,    6445,    6482,    6481
    5920,    2532,    2533,    2550,    2549,    6445,    5656,    2669,    6482
    5921,    2533,    2534,    2551,    2550,    5656,    6620,    6655,    2669
    5922,    2534,    2535,    2552,    2551,    6620,    6619,    6656,    6655
    5923,    2535,    2536,    2553,    2552,    6619,    5652,    2668,    6656
    5924,    2536,    2537,    2554,    2553,    5652,    6770,    6805,    2668
    5925,    2537,    2538,    2555,    2554,    6770,    6769,    6806,    6805
    5926,    2538,    2539,    2556,    2555,    6769,    5648,    2667,    6806
    5927,    2539,    2540,    2557,    2556,    5648,    5643,    5323,    2667
    5928,    2540,    2541,    2558,    2557,    5643,    5623,    5324,    5323
    5929,    2541,    5612,    5249,    2558,    5623,    5619,    2595,    5324
    5930,      32,    2542,    2559,      33,    2654,    6129,    6126,    5190
    5931,    2542,    2543,    2560,    2559,    6129,    6130,    6125,    6126
    5932,    2543,    2544,    2561,    2560,    6130,    2671,    5185,    6125
    5933,    2544,    2545,    2562,    2561,    2671,    6323,    6286,    5185
    5934,    2545,    2546,    2563,    2562,    6323,    6324,    6285,    6286
    5935,    2546,    2547,    2564,    2563,    6324,    2670,    5179,    6285
    5936,    2547,    2548,    2565,    2564,    2670,    6481,    6444,    5179
    5937,    2548,    2549,    2566,    2565,    6481,    6482,    6443,    6444
    5938,    2549,    2550,    2567,    2566,    6482,    2669,    5177,    6443
    5939,    2550,    2551,    2568,    2567,    2669,    6655,    6618,    5177
    5940,    2551,    2552,    2569,    2568,    6655,    6656,    6617,    6618
    5941,    2552,    2553,    2570,    2569,    6656,    2668,    5173,    6617
    5942,    2553,    2554,    2571,    2570,    2668,    6805,    6768,    5173
    5943,    2554,    2555,    2572,    2571,    6805,    6806,    6767,    6768
    5944,    2555,    2556,    2573,    2572,    6806,    2667,    5167,    6767
    5945,    2556,    2557,    2574,    2573,    2667,    5323,    5318,    5167
    5946,    2557,    2558,    2575,    2574,    5323,    5324,    5317,    5318
    5947,    2558,    5249,    5242,    2575,    5324,    2595,    5158,    5317
    5948,      33,    2559,    2576,      34,    5190,    6126,    6100,    5189
    5949,    2559,    2560,    2577,    2576,    6126,    6125,    6099,    6100
    5950,    2560,    2561,    2578,    2577,    6125,    5185,    5186,    6099
    5951,    2561,    2562,    2579,    2578,    5185,    6286,    6270,    5186
    5952,    2562,    2563,    2580,    2579,    6286,    6285,    6269,    6270
    5953,    2563,    2564,    2581,    2580,    6285,    5179,    5180,    6269
    5954,    2564,    2565,    2582,    2581,    5179,    6444,    6428,    5180
    5955,    2565,    2566,    2583,    2582,    6444,    6443,    6427,    6428
    5956,    2566,    2567,    2584,    2583,    6443,    5177,    5178,    6427
    5957,    2567,    2568,    2585,    2584,    5177,    6618,    6586,    5178
    5958,    2568,    2569,    2586,    2585,    6618,    6617,    6585,    6586
    5959,    2569,    2570,    2587,    2586,    6617,    5173,    5174,    6585
    5960,    2570,    2571,    2588,    2587,    5173,    6768,    6744,    5174
    5961,    2571,    2572,    2589,    2588,    6768,    6767,    6743,    6744
    5962,    2572,    2573,    2590,    2589,    6767,    5167,    5168,    6743
    5963,    2573,    2574,    2591,    2590,    5167,    5318,    5312,    5168
    5964,    2574,    2575,    2592,    2591,    5318,    5317,    5311,    5312
    5965,    2575,    5242,    5240,    2592,    5317,    5158,    5157,    5311
    5966,      34,    2576,    6102,    5280,    5189,    6100,    6093,    2618
    5967,    2576,    2577,    6101,    6102,    6100,    6099,    6094,    6093
    5968,    2577,    2578,    5275,    6101,    6099,    5186,    2619,    6094
    5969,    2578,    2579,    6258,    5275,    5186,    6270,    6261,    2619
    5970,    2579,    2580,    6257,    6258,    6270,    6269,    6262,    6261
    5971,    2580,    2581,    5269,    6257,    6269,    5180,    2620,    6262
    5972,    2581,    2582,    6416,    5269,    5180,    6428,    6419,    2620
    5973,    2582,    2583,    6415,    6416,    6428,    6427,    6420,    6419
    5974,    2583,    2584,    5267,    6415,    6427,    5178,    2621,    6420
    5975,    2584,    2585,    6574,    5267,    5178,    6586,    6577,    2621
    5976,    2585,    2586,    6573,    6574,    6586,    6585,    6578,    6577
    5977,    2586,    2587,    5261,    6573,    6585,    5174,    2622,    6578
    5978,    2587,    2588,    6732,    5261,    5174,    6744,    6735,    2622
    5979,    2588,    2589,    6731,    6732,    6744,    6743,    6736,    6735
    5980,    2589,    2590,    5235,    6731,    6743,    5168,    2623,    6736
    5981,    2590,    2591,    5336,    5235,    5168,    5312,    5331,    2623
    5982,    2591,    2592,    5335,    5336,    5312,    5311,    5332,    5331
    5983,    2592,    5240,    5232,    5335,    5311,    5157,    2593,    5332
**
********************************** S I D E S E T S **********************************
*ELSET, ELSET=SS1_S1
    2497,    2500,    2503,    2506,    2509,    2512,    2515,    2518,    2521,    2524,
    2527,    2530,    2533,    2536,    2539,    2542,    2545,    2548,    2551,    2554,
    2557,    2560,    2563,    2566,    2569
*ELSET, ELSET=SS1_S2
    1651,    1652,    1653,    1654,    1655,    1656,    1657,    1658,    1659,    1660,
    1661,    1662,    1663,    1664,    1665,    1666,    1667,    1668,    1669,    1670,
    1671,    1672,    1673,    1674,    1675,    1676,    1677,    1678,    1679,    1680,
    1681,    1682,    1683,    1684,    1685,    1686,    1687,    1688,    1689,    1690,
    1691,    1692,    1693,    1694,    1695,    1696,    1697,    1698,    1699,    1700,
    1701,    1702,    1703,    1704,    1705,    1806,    1807,    1808,    1809,    1810,
    1811,    1812,    1813,    1814,    1815,    1816,    1817,    1818,    1819,    1820,
    1821,    1822,    1823,    1824,    1825,    1837,    1872,    1997,    2052,    2160,
    2233,    2328,    2449,    2574,    2576,    2582,    2586,    2590,    2594,    2598,
    2602,    2606,    2610,    2614,    2618,    2622,    2626,    2630,    2634,    2638,
    2642,    2646,    2650,    2654,    2658,    2662,    2664,    2670,    2674
*ELSET, ELSET=SS1_S3
    3392,    3393,    3394,    3395,    3396,    3397,    3398,    3399,    3400,    3401,
    3402,    3403,    3404,    3405,    3406,    3407,    3408,    3409,    3608,    3609,
    3610,    3611,    3612,    3613,    3614,    3615,    3616,    3617,    3618,    3619,
    3620,    3621,    3622,    3623,    3624,    3625,    3824,    3825,    3826,    3827,
    3828,    3829,    3830,    3831,    3832,    3833,    3834,    3835,    3836,    3837,
    3838,    3839,    3840,    3841,    4040,    4041,    4042,    4043,    4044,    4045,
    4046,    4047,    4048,    4049,    4050,    4051,    4052,    4053,    4054,    4055,
    4056,    4057,    4256,    4257,    4258,    4259,    4260,    4261,    4262,    4263,
    4264,    4265,    4266,    4267,    4268,    4269,    4270,    4271,    4272,    4273,
    4472,    4473,    4474,    4475,    4476,    4477,    4478,    4479,    4480,    4481,
    4482,    4483,    4484,    4485,    4486,    4487,    4488,    4489,    4688,    4689,
    4690,    4691,    4692,    4693,    4694,    4695,    4696,    4697,    4698,    4699,
    4700,    4701,    4702,    4703,    4704,    4705,    4904,    4905,    4906,    4907,
    4908,    4909,    4910,    4911,    4912,    4913,    4914,    4915,    4916,    4917,
    4918,    4919,    4920,    4921,    5120,    5121,    5122,    5123,    5124,    5125,
    5126,    5127,    5128,    5129,    5130,    5131,    5132,    5133,    5134,    5135,
    5136,    5137,    5336,    5337,    5338,    5339,    5340,    5341,    5342,    5343,
    5344,    5345,    5346,    5347,    5348,    5349,    5350,    5351,    5352,    5353,
    5552,    5553,    5554,    5555,    5556,    5557,    5558,    5559,    5560,    5561,
    5562,    5563,    5564,    5565,    5566,    5567,    5568,    5569,    5768,    5769,
    5770,    5771,    5772,    5773,    5774,    5775,    5776,    5777,    5778,    5779,
    5780,    5781,    5782,    5783,    5784,    5785
*SURFACE, NAME=SS1
SS1_S1, S1
SS1_S2, S2
SS1_S3, S3
*ELSET, ELSET=SS2_S2
    1953,    1956,    1959,    1962,    1965,    1968,    1971
*ELSET, ELSET=SS2_S3
       1,       2,       3,       4,       5,       6,       7,       8,       9,      10,
     101,     102,     103,     104,     105,     106,     107,     108,     109,     110,
     201,     202,     203,     204,     205,     206,     207,     208,     209,     210,
     301,     302,     303,     304,     305,     306,     307,     308,     309,     310,
     401,     402,     403,     404,     405,     406,     407,     408,     409,     410,
     501,     502,     503,     504,     505,     506,     507,     508,     509,     510,
     601,     602,     603,     604,     605,     606,     607,     608,     609,     610,
     701,     702,     703,     704,     705,     706,     707,     708,     709,     710,
     801,     802,     803,     804,     805,     806,     807,     808,     809,     810,
     901,     902,     903,     904,     905,     906,     907,     908,     909,     910,
    1001,    1002,    1003,    1004,    1005,    1006,    1007,    1008,    1009,    1010,
    1101,    1102,    1103,    1104,    1105,    1106,    1107,    1108,    1109,    1110,
    1201,    1202,    1203,    1204,    1205,    1206,    1207,    1208,    1209,    1210,
    1301,    1302,    1303,    1304,    1305,    1706,    1707,    1708,    1709,    1710,
    1726,    1727,    1728,    1729,    1730,    1746,    1747,    1748,    1749,    1750,
    1766,    1767,    1768,    1769,    1770,    1786,    1787,    1788,    1789,    1790,
    1806,    1807,    1808,    1809,    1810,    1868,    1922,    1972,    1976,    1984,
    1988,    1992,    2000,    2004,    2008,    2053,    2054,    2055,    2056,    2323,
    2324,    2325,    2326,    2444,    2445,    2446,    2447,    2596,    2597,    2598,
    2599,    2799,    2800,    2801,    2802,    2978,    2979,    2980,    2981,    3145,
    3146,    3147,    3148,    3336,    3337,    3338,    3339
*ELSET, ELSET=SS2_S5
    2033,    2034,    2035,    2279,    2280,    2281,    2400,    2401,    2402,    2509,
    2510,    2511,    2709,    2710,    2711,    2888,    2889,    2890,    3079,    3080,
    3081,    3249,    3250,    3251
*ELSET, ELSET=SS2_S6
    3392,    3410,    3428,    3446,    3464,    3482,    3500,    3518,    3536,    3554,
    3572,    3590,    3608,    3626,    3644,    3662,    3680,    3698,    3716,    3734,
    3752,    3770,    3788,    3806,    3824,    3842,    3860,    3878,    3896,    3914,
    3932,    3950,    3968,    3986,    4004,    4022,    4040,    4058,    4076,    4094,
    4112,    4130,    4148,    4166,    4184,    4202,    4220,    4238,    4256,    4274,
    4292,    4310,    4328,    4346,    4364,    4382,    4400,    4418,    4436,    4454,
    4472,    4490,    4508,    4526,    4544,    4562,    4580,    4598,    4616,    4634,
    4652,    4670,    4688,    4706,    4724,    4742,    4760,    4778,    4796,    4814,
    4832,    4850,    4868,    4886,    4904,    4922,    4940,    4958,    4976,    4994,
    5012,    5030,    5048,    5066,    5084,    5102,    5120,    5138,    5156,    5174,
    5192,    5210,    5228,    5246,    5264,    5282,    5300,    5318,    5336,    5354,
    5372,    5390,    5408,    5426,    5444,    5462,    5480,    5498,    5516,    5534,
    5552,    5570,    5588,    5606,    5624,    5642,    5660,    5678,    5696,    5714,
    5732,    5750,    5768,    5786,    5804,    5822,    5840,    5858,    5876,    5894,
    5912,    5930,    5948,    5966
*SURFACE, NAME=SS2
SS2_S2, S2
SS2_S3, S3
SS2_S5, S5
SS2_S6, S6
*ELSET, ELSET=SS3_S5
      91,      92,      93,      94,      95,      96,      97,      98,      99,     100,
     191,     192,     193,     194,     195,     196,     197,     198,     199,     200,
     291,     292,     293,     294,     295,     296,     297,     298,     299,     300,
     391,     392,     393,     394,     395,     396,     397,     398,     399,     400,
     491,     492,     493,     494,     495,     496,     497,     498,     499,     500,
     591,     592,     593,     594,     595,     596,     597,     598,     599,     600,
     691,     692,     693,     694,     695,     696,     697,     698,     699,     700,
     791,     792,     793,     794,     795,     796,     797,     798,     799,     800,
     891,     892,     893,     894,     895,     896,     897,     898,     899,     900,
     991,     992,     993,     994,     995,     996,     997,     998,     999,    1000,
    1091,    1092,    1093,    1094,    1095,    1096,    1097,    1098,    1099,    1100,
    1191,    1192,    1193,    1194,    1195,    1196,    1197,    1198,    1199,    1200,
    1291,    1292,    1293,    1294,    1295,    1296,    1297,    1298,    1299,    1300,
    1366,    1367,    1368,    1369,    1370,    1371,    1372,    1373,    1374,    1375,
    1421,    1422,    1423,    1424,    1425,    1426,    1427,    1428,    1429,    1430,
    1476,    1477,    1478,    1479,    1480,    1481,    1482,    1483,    1484,    1485,
    1531,    1532,    1533,    1534,    1535,    1536,    1537,    1538,    1539,    1540,
    1586,    1587,    1588,    1589,    1590,    1591,    1592,    1593,    1594,    1595,
    1641,    1642,    1643,    1644,    1645,    1646,    1647,    1648,    1649,    1650,
    1696,    1697,    1698,    1699,    1700,    1701,    1702,    1703,    1704,    1705
*SURFACE, NAME=SS3
SS3_S5, S5
*ELSET, ELSET=SS4_S1
    2012,    2015,    2018,    2021,    2024,    2027,    2030,    2033,    2036,    2039,
    3392,    3393,    3394,    3395,    3396,    3397,    3398,    3399,    3400,    3401,
    3402,    3403,    3404,    3405,    3406,    3407,    3408,    3409,    3410,    3411,
    3412,    3413,    3414,    3415,    3416,    3417,    3418,    3419,    3420,    3421,
    3422,    3423,    3424,    3425,    3426,    3427,    3428,    3429,    3430,    3431,
    3432,    3433,    3434,    3435,    3436,    3437,    3438,    3439,    3440,    3441,
    3442,    3443,    3444,    3445,    3446,    3447,    3448,    3449,    3450,    3451,
    3452,    3453,    3454,    3455,    3456,    3457,    3458,    3459,    3460,    3461,
    3462,    3463,    3464,    3465,    3466,    3467,    3468,    3469,    3470,    3471,
    3472,    3473,    3474,    3475,    3476,    3477,    3478,    3479,    3480,    3481,
    3482,    3483,    3484,    3485,    3486,    3487,    3488,    3489,    3490,    3491,
    3492,    3493,    3494,    3495,    3496,    3497,    3498,    3499,    3500,    3501,
    3502,    3503,    3504,    3505,    3506,    3507,    3508,    3509,    3510,    3511,
    3512,    3513,    3514,    3515,    3516,    3517,    3518,    3519,    3520,    3521,
    3522,    3523,    3524,    3525,    3526,    3527,    3528,    3529,    3530,    3531,
    3532,    3533,    3534,    3535,    3536,    3537,    3538,    3539,    3540,    3541,
    3542,    3543,    3544,    3545,    3546,    3547,    3548,    3549,    3550,    3551,
    3552,    3553,    3554,    3555,    3556,    3557,    3558,    3559,    3560,    3561,
    3562,    3563,    3564,    3565,    3566,    3567,    3568,    3569,    3570,    3571,
    3572,    3573,    3574,    3575,    3576,    3577,    3578,    3579,    3580,    3581,
    3582,    3583,    3584,    3585,    3586,    3587,    3588,    3589,    3590,    3591,
    3592,    3593,    3594,    3595,    3596,    3597,    3598,    3599,    3600,    3601,
    3602,    3603,    3604,    3605,    3606,    3607
*ELSET, ELSET=SS4_S3
    2108,    2109,    2110,    2189,    2190,    2191,    2539,    2540,    2541,    2724,
    2725,    2726,    2903,    2904,    2905,    3049,    3050,    3051,    3273,    3274,
    3275
*ELSET, ELSET=SS4_S6
       1,      11,      21,      31,      41,      51,      61,      71,      81,      91,
     101,     111,     121,     131,     141,     151,     161,     171,     181,     191,
     201,     211,     221,     231,     241,     251,     261,     271,     281,     291,
     301,     311,     321,     331,     341,     351,     361,     371,     381,     391,
     401,     411,     421,     431,     441,     451,     461,     471,     481,     491,
     501,     511,     521,     531,     541,     551,     561,     571,     581,     591,
     601,     611,     621,     631,     641,     651,     661,     671,     681,     691,
     701,     711,     721,     731,     741,     751,     761,     771,     781,     791,
     801,     811,     821,     831,     841,     851,     861,     871,     881,     891,
     901,     911,     921,     931,     941,     951,     961,     971,     981,     991,
    1001,    1011,    1021,    1031,    1041,    1051,    1061,    1071,    1081,    1091,
    1101,    1111,    1121,    1131,    1141,    1151,    1161,    1171,    1181,    1191,
    1201,    1211,    1221,    1231,    1241,    1251,    1261,    1271,    1281,    1291,
    1326,    1336,    1346,    1356,    1366,    1381,    1391,    1401,    1411,    1421,
    1436,    1446,    1456,    1466,    1476,    1491,    1501,    1511,    1521,    1531,
    1546,    1556,    1566,    1576,    1586,    1601,    1611,    1621,    1631,    1641,
    1656,    1666,    1676,    1686,    1696,    1835,    1923,    1980,    2042,    2046,
    2053,    2057,    2061,    2066,    2070,    2077,    2083,    2085,    2089,    2132,
    2133,    2134,    2135,    2217,    2218,    2219,    2220,    2576,    2577,    2578,
    2579,    2767,    2768,    2769,    2770,    2946,    2947,    2948,    2949,    3173,
    3174,    3175,    3176,    3312,    3313,    3314,    3315
*SURFACE, NAME=SS4
SS4_S1, S1
SS4_S3, S3
SS4_S6, S6
**
********************************** P R O P E R T I E S ************************
*SOLID SECTION, ELSET=EB1, MATERIAL=Default-Steel
**
*END PART
**
**
**
********************************** E N D   P A R T S **********************************
**
**
********************************** A S S E M B L Y ************************************
**
*ASSEMBLY, NAME=ASSEMBLY1
**
*INSTANCE, NAME=Part-Default_1, PART=Part-Default
*END INSTANCE
**
*END ASSEMBLY
**
**
**
*MATERIAL, NAME = Default-Steel
*ELASTIC, TYPE=ISOTROPIC
2.068000e+05, 2.900000e-01
*DENSITY
7.000000e-06
*CONDUCTIVITY,TYPE=ISO
4.500000e-02
*SPECIFIC HEAT
5.000000e+02
**
**
************************************** H I S T O R Y *************************************
**
*PREPRINT
**
**************************************** S T E P 1 ***************************************
*STEP,INC=100,NAME=Default Set
**
*STATIC
1, 1, 1e-05, 1
**
**
**
**
*END STEP
